     Program PWSCF v.7.3.1 starts on  9Jun2024 at 11:50:32

     Reading input from espresso.pwi

     Current dimensions of program PWSCF are:
     Max number of different atomic species (ntypx) = 10
     Max number of k-points (npk) =  40000
     Max angular momentum in pseudopotentials (lmaxx) =  4
     Message from routine iosys_1drism:
     default density from MOL file(H2O.tip5p.Nishihara.MOL) is used
     Found identity + ( -0.0000 -0.5000  0.0000) symmetry
     This is a supercell, fractional translations are disabled

     R & G space division:  proc/nbgrp/npool/nimage =      32
     Subspace diagonalization in iterative solution of the eigenvalue problem:
     a serial algorithm will be used

     Molecule # 1 for H2O read from file:
     /beegfs/hotpool/mano/rism/RISM_example/pseudo/H2O.tip5p.Nishihara.MOL
     Density:
         0.23069113E+02 cell^-1
         0.49533751E-02 bohr^-3
         0.55506881E+02 mol/L
         0.99997200E+00 g/cm^3
     Permittivity:
        78.500000
     Number of atoms:   5
     Atoms:
       #  atom      X (angs)      Y (angs)      Z (angs)      Q (e)         E (kcal/mol)  S (angs)
       1  O/h2o     0.00000000   -0.06556000    0.00000000    0.00000000    0.16000000    3.12000000
       2  H/h2o     0.75695000    0.52032000    0.00000000    0.24100000    0.04600000    1.00000000
       3  H/h2o    -0.75695000    0.52032000    0.00000000    0.24100000    0.04600000    1.00000000
       4  L/h2o     0.00000000   -0.46971000    0.57154000   -0.24100000    0.04600000    1.80000000
       5  L/h2o     0.00000000   -0.46971000   -0.57154000   -0.24100000    0.04600000    1.80000000

     Molecule # 2 for K+ read from file:
     /beegfs/hotpool/mano/rism/RISM_example/pseudo/K+.Hagiwara.MOL
     Density:
         0.41560816E+00 cell^-1
         0.89238937E-04 bohr^-3
         0.10000000E+01 mol/L
         0.39098300E-01 g/cm^3
     Number of atoms:   1
     Atoms:
       #  atom      X (angs)      Y (angs)      Z (angs)      Q (e)         E (kcal/mol)  S (angs)
       1  K         0.00000000    0.00000000    0.00000000    1.00000000    0.00032800    4.93462800

     Molecule # 3 for OH- read from file:
     /beegfs/hotpool/mano/rism/RISM_example/pseudo/OH-.oplsaa.MOL
     Density:
         0.41560816E+00 cell^-1
         0.89238937E-04 bohr^-3
         0.10000000E+01 mol/L
         0.17007340E-01 g/cm^3
     Number of atoms:   2
     Atoms:
       #  atom      X (angs)      Y (angs)      Z (angs)      Q (e)         E (kcal/mol)  S (angs)
       1  O/oh      0.00000000    0.00000000    0.00000000   -1.30000000    0.25000000    3.20000000
       2  H/oh      0.95300000    0.00000000    0.00000000    0.30000000    0.04600000    1.00000000

     1D-RISM info
     closure equation        =           KH
     temperature             =     300.0000  kelvin
     coulomb smearing radius =       2.0000  bohr
     number of solvent sites =            8
     number of grids         =         5973
     maximum of R-space      =     999.8326  bohr
     maximum of G-space      =      18.7632  bohr^-1
     number of iterations    =        15000
     convergence threshold   =      1.0E-08
     Gaussian width of bonds =       0.3162  bohr
     size of MDIIS           =           20
     step of MDIIS           =       0.2000
     number of processes     =           32

     Correlation function is read from file

     1D-RISM Calculation

     iter. #     1  RMS(g-h-1)= 9.990E-09  nbox=  0  T=  300.00K

     End of 1D-RISM calculation

     convergence has been achieved in     1 iterations

     Chemical potential of solvation

     H2O        H2O        Closure      0.144018E+01 kcal/mol
                           GaussFluct  -0.702227E+01 kcal/mol

                K+         Closure     -0.280526E+00 kcal/mol
                           GaussFluct  -0.350066E+00 kcal/mol

                OH-        Closure     -0.749876E+00 kcal/mol
                           GaussFluct  -0.841417E+00 kcal/mol

                Total      Closure      0.409778E+00 kcal/mol
                           GaussFluct  -0.821376E+01 kcal/mol

     K+         H2O        Closure     -0.155711E+02 kcal/mol
                           GaussFluct  -0.194311E+02 kcal/mol

[...]

     OH-        H2O        Closure     -0.416233E+02 kcal/mol
                           GaussFluct  -0.467044E+02 kcal/mol

                K+         Closure     -0.351595E+06 kcal/mol
                           GaussFluct  -0.351595E+06 kcal/mol

                OH-        Closure      0.351544E+06 kcal/mol
                           GaussFluct   0.351544E+06 kcal/mol

                Total      Closure     -0.925525E+02 kcal/mol
                           GaussFluct  -0.977562E+02 kcal/mol

     Using Slab Decomposition

     bravais-lattice index     =            0
     lattice parameter (alat)  =       9.7396  a.u.
     unit-cell volume          =    4657.2513 (a.u.)^3
     number of atoms/cell      =           12
     number of atomic types    =            1
     number of electrons       =       227.80
     number of Kohn-Sham states=          137
     kinetic-energy cutoff     =      40.0000  Ry
     charge density cutoff     =     320.0000  Ry
     scf convergence threshold =      1.0E-06
     mixing beta               =       0.1000
     number of iterations used =            8  plain     mixing
     Exchange-correlation= SLA  PW   PBE  PBE
                           (   1   4   3   4   0   0   0)

     Effective Screening Medium Method
     Boundary Conditions: Vacuum-Slab-Vacuum
     total charge in unit cell        =   0.2000
     grid points for fit at edges     =        4

     celldm(1)=   9.739563  celldm(2)=   0.000000  celldm(3)=   0.000000
     celldm(4)=   0.000000  celldm(5)=   0.000000  celldm(6)=   0.000000

     crystal axes: (cart. coord. in units of alat)
               a(1) = (   1.000000   0.000000   0.000000 )
               a(2) = (   0.500000   0.866025   0.000000 )
               a(3) = (   0.000000   0.000000   5.820773 )

     reciprocal axes: (cart. coord. in units 2 pi/alat)
               b(1) = (  1.000000 -0.577350  0.000000 )
               b(2) = (  0.000000  1.154701  0.000000 )
               b(3) = (  0.000000  0.000000  0.171798 )

     PseudoPot. # 1 for Cu read from file:
     /beegfs/hotpool/mano/rism/RISM_example/pseudo/cu_pbe_v1.2.uspp.F.UPF
     MD5 check sum: 6e991ff952a84172a2a52a1c1e996048
     Pseudo is Ultrasoft + core correction, Zval = 19.0
     Generated by new atomic code, or converted to UPF format
     Using radial grid of  867 points,  6 beta functions with:
                l(1) =   0
                l(2) =   0
                l(3) =   1
                l(4) =   1
                l(5) =   2
                l(6) =   2
     Q(r) pseudized with  8 coefficients,  rinner =    1.150   1.150   1.150
                                                       1.150   1.150

     atomic species   valence    mass     pseudopotential
     Cu               19.00    63.54600     Cu( 1.00)

     No symmetry found

   Cartesian axes

     site n.     atom                  positions (alat units)
         1        Cu     tau(   1) = (   0.0000000   0.0000000  -0.4043952  )
         2        Cu     tau(   2) = (   0.5000000   0.2886751   0.0038531  )
         3        Cu     tau(   3) = (   0.2500000   0.1443376   0.4121014  )
         4        Cu     tau(   4) = (   0.2500000   0.4330127  -0.4043952  )
         5        Cu     tau(   5) = (   0.7500000   0.7216878   0.0038531  )
         6        Cu     tau(   6) = (   0.5000000   0.5773503   0.4121014  )
         7        Cu     tau(   7) = (   0.5000000   0.0000000  -0.4043952  )
         8        Cu     tau(   8) = (   1.0000000   0.2886751   0.0038531  )
         9        Cu     tau(   9) = (   0.7500000   0.1443376   0.4121014  )
        10        Cu     tau(  10) = (   0.7500000   0.4330127  -0.4043952  )
        11        Cu     tau(  11) = (   1.2500000   0.7216878   0.0038531  )
        12        Cu     tau(  12) = (   1.0000000   0.5773503   0.4121014  )

     number of k points=     8  Gaussian smearing, width (Ry)=  0.0100
                       cart. coord. in units 2pi/alat
        k(    1) = (   0.1250000   0.0721688   0.0000000), wk =   0.2500000
        k(    2) = (   0.1250000   0.3608439   0.0000000), wk =   0.2500000
        k(    3) = (   0.1250000  -0.5051815   0.0000000), wk =   0.2500000
        k(    4) = (   0.1250000  -0.2165064   0.0000000), wk =   0.2500000
        k(    5) = (   0.3750000  -0.0721688   0.0000000), wk =   0.2500000
        k(    6) = (   0.3750000   0.2165064   0.0000000), wk =   0.2500000
        k(    7) = (   0.3750000  -0.6495191   0.0000000), wk =   0.2500000
        k(    8) = (   0.3750000  -0.3608439   0.0000000), wk =   0.2500000

     Solute:
       # atom     E (kcal/mol)  S (angs)
       1  Cu      0.00500000    3.11369102    given
       2  Cu      0.00500000    3.11369102    given
       3  Cu      0.00500000    3.11369102    given
       4  Cu      0.00500000    3.11369102    given
       5  Cu      0.00500000    3.11369102    given
       6  Cu      0.00500000    3.11369102    given
       7  Cu      0.00500000    3.11369102    given
       8  Cu      0.00500000    3.11369102    given
       9  Cu      0.00500000    3.11369102    given
      10  Cu      0.00500000    3.11369102    given
      11  Cu      0.00500000    3.11369102    given
      12  Cu      0.00500000    3.11369102    given

     Wall:
       Density =    0.01000000  bohr^-3
       E       =    0.10000000  kcal/mol
       S       =    4.00000000  angs

     Laue-RISM info
     closure equation        =           KH
     temperature             =     300.0000  kelvin
     coulomb smearing radius =       2.0000  bohr
     number of solvent sites =            6
     solvent sites           =    O/h2o   H/h2o   L/h2o       K
     solvent sites           =     O/oh    H/oh
     number of iterations    =        15000
     convergence threshold   =      1.0E-06
     convergence level       =       0.7000
     size of MDIIS           =           20
     step of MDIIS           =       0.1000
     solvent cutoff          =     160.0000  Ry
     Custom grid:   159127 G-vectors     FFT dimensions: (  40,  40, 240)

     Boundary Conditions        : Vacuum-Slab-Solvent
     unit-cell (in bohr)        : [ -28.345892  28.345892]
     expand-cell (in bohr)      : [ -28.345892  89.761991]
     solvent of right (in bohr) : [   0.000000  89.761991]
     buffer  of right (in bohr) : [  -4.015668   0.000000]
     repulsive wall (in bohr)   : [  -Infinity  -2.286274]
     reference of potential     : right-hand side
     #grids to fit at edges of unit-cell =    4
     Laue grid:     1039 Gxy-vectors     FFT dimensions: (  40,  40, 500)

     The initial density is read from file :
     ./output/opt.save/charge-density

     starting charge     227.9000, renormalised to     227.8000

     Correlation function is read from file

     negative rho (up, down):  1.607E-03 0.000E+00

     Laue-RISM Calculation

     convergence threshold    = 1.585E-05
     iter. #     1  RMS(g-h-1)= 5.197E-03  nbox=  0
     iter. #    11  RMS(g-h-1)= 9.226E-04  nbox= 10
     iter. #    21  RMS(g-h-1)= 7.042E-04  nbox= 20
     iter. #    31  RMS(g-h-1)= 6.697E-04  nbox=  3
     iter. #    41  RMS(g-h-1)= 6.591E-04  nbox= 13
     iter. #    51  RMS(g-h-1)= 6.090E-04  nbox=  7
     iter. #    61  RMS(g-h-1)= 5.636E-04  nbox= 17
     iter. #    71  RMS(g-h-1)= 5.353E-04  nbox= 11
     iter. #    81  RMS(g-h-1)= 4.889E-04  nbox=  5
     iter. #    91  RMS(g-h-1)= 4.600E-04  nbox= 15
     iter. #   101  RMS(g-h-1)= 4.384E-04  nbox=  9
     iter. #   111  RMS(g-h-1)= 4.261E-04  nbox=  3
     iter. #   121  RMS(g-h-1)= 4.217E-04  nbox= 13
     iter. #   131  RMS(g-h-1)= 4.136E-04  nbox=  7
     iter. #   141  RMS(g-h-1)= 4.016E-04  nbox= 17
     iter. #   151  RMS(g-h-1)= 3.944E-04  nbox= 11
     iter. #   161  RMS(g-h-1)= 3.838E-04  nbox=  5
     iter. #   171  RMS(g-h-1)= 3.758E-04  nbox= 15
     iter. #   181  RMS(g-h-1)= 3.547E-04  nbox=  9
     iter. #   191  RMS(g-h-1)= 3.286E-04  nbox=  3
     iter. #   201  RMS(g-h-1)= 2.990E-04  nbox= 13
     iter. #   211  RMS(g-h-1)= 2.547E-04  nbox=  7
     iter. #   221  RMS(g-h-1)= 2.206E-04  nbox= 17
     iter. #   231  RMS(g-h-1)= 1.997E-04  nbox= 11
     iter. #   241  RMS(g-h-1)= 1.880E-04  nbox=  5
     iter. #   251  RMS(g-h-1)= 1.849E-04  nbox= 15
     iter. #   261  RMS(g-h-1)= 1.822E-04  nbox=  9
     iter. #   271  RMS(g-h-1)= 1.810E-04  nbox=  3
     iter. #   281  RMS(g-h-1)= 1.795E-04  nbox= 13
     iter. #   291  RMS(g-h-1)= 1.797E-04  nbox=  7
     iter. #   301  RMS(g-h-1)= 1.734E-04  nbox= 17
     iter. #   311  RMS(g-h-1)= 1.667E-04  nbox= 11
     iter. #   321  RMS(g-h-1)= 1.641E-04  nbox=  5
     iter. #   331  RMS(g-h-1)= 1.612E-04  nbox= 15
     iter. #   341  RMS(g-h-1)= 1.575E-04  nbox=  9
     iter. #   351  RMS(g-h-1)= 1.454E-04  nbox=  3
     iter. #   361  RMS(g-h-1)= 1.338E-04  nbox= 13
     iter. #   371  RMS(g-h-1)= 1.220E-04  nbox=  7
     iter. #   381  RMS(g-h-1)= 1.100E-04  nbox= 17
     iter. #   391  RMS(g-h-1)= 1.059E-04  nbox= 11
     iter. #   401  RMS(g-h-1)= 9.851E-05  nbox=  5
     iter. #   411  RMS(g-h-1)= 9.441E-05  nbox= 15
     iter. #   421  RMS(g-h-1)= 9.171E-05  nbox=  9
     iter. #   431  RMS(g-h-1)= 8.752E-05  nbox=  3
     iter. #   441  RMS(g-h-1)= 8.573E-05  nbox= 13
     iter. #   451  RMS(g-h-1)= 8.335E-05  nbox=  7
     iter. #   461  RMS(g-h-1)= 8.131E-05  nbox= 17
     iter. #   471  RMS(g-h-1)= 7.667E-05  nbox= 11
     iter. #   481  RMS(g-h-1)= 7.235E-05  nbox=  5
     iter. #   491  RMS(g-h-1)= 6.956E-05  nbox= 15
     iter. #   501  RMS(g-h-1)= 6.741E-05  nbox=  9
     iter. #   511  RMS(g-h-1)= 6.625E-05  nbox=  3
     iter. #   521  RMS(g-h-1)= 6.489E-05  nbox= 13
     iter. #   531  RMS(g-h-1)= 6.513E-05  nbox=  7
     iter. #   541  RMS(g-h-1)= 6.389E-05  nbox= 17
     iter. #   551  RMS(g-h-1)= 6.305E-05  nbox= 11
     iter. #   561  RMS(g-h-1)= 6.197E-05  nbox=  5
     iter. #   571  RMS(g-h-1)= 5.835E-05  nbox= 15
     iter. #   581  RMS(g-h-1)= 5.664E-05  nbox=  9
     iter. #   591  RMS(g-h-1)= 5.483E-05  nbox=  3
[...]
     iter. #   651  RMS(g-h-1)= 4.575E-05  nbox= 15
     iter. #   661  RMS(g-h-1)= 4.461E-05  nbox=  9
     iter. #   671  RMS(g-h-1)= 4.365E-05  nbox=  3
     iter. #   681  RMS(g-h-1)= 4.264E-05  nbox= 13
     iter. #   691  RMS(g-h-1)= 4.048E-05  nbox=  7
     iter. #   701  RMS(g-h-1)= 3.732E-05  nbox= 17
     iter. #   711  RMS(g-h-1)= 3.456E-05  nbox= 11
     iter. #   721  RMS(g-h-1)= 3.239E-05  nbox=  5
     iter. #   731  RMS(g-h-1)= 2.970E-05  nbox= 15
     iter. #   741  RMS(g-h-1)= 2.760E-05  nbox=  9
     iter. #   751  RMS(g-h-1)= 2.524E-05  nbox=  3
     iter. #   761  RMS(g-h-1)= 2.283E-05  nbox= 13
     iter. #   771  RMS(g-h-1)= 1.985E-05  nbox=  7
     iter. #   781  RMS(g-h-1)= 1.794E-05  nbox= 17
     iter. #   791  RMS(g-h-1)= 1.573E-05  nbox= 11

     End of Laue-RISM calculation

[...]

     solvent charge   -0.19777, renormalised to   -0.20000

     Total number of solvent (in expand-cell)
     H2O           33.145146
     K+             0.566437
     OH-            0.765951

     Total charge of solvent (in expand-cell)
     H2O            0.000160 e
     K+             0.566437 e
     OH-           -0.764366 e
     Total         -0.197769 e

     Chemical potential of solvation (in expand-cell)
     H2O        GaussFluct   0.445579E+00 kcal/mol
     K+         GaussFluct  -0.263294E+03 kcal/mol
     OH-        GaussFluct   0.271365E+03 kcal/mol
     Total      GaussFluct   0.851666E+01 kcal/mol

     Starting wfcs from file

     Self-consistent Calculation

     iteration #  1     ecut=    40.00 Ry     beta= 0.10
     Davidson diagonalization with overlap
     c_bands:  3 eigenvalues not converged
     c_bands:  5 eigenvalues not converged
     c_bands:  2 eigenvalues not converged
     c_bands:  3 eigenvalues not converged
     c_bands:  1 eigenvalues not converged
     c_bands:  3 eigenvalues not converged
     c_bands:  5 eigenvalues not converged
     ethr =  1.00E-05,  avg # of iterations = 44.1

[...]

     total energy              =   -4844.51698813 Ry
     estimated scf accuracy    <       2.67434803 Ry

     iteration #  2     ecut=    40.00 Ry     beta= 0.10
     Davidson diagonalization with overlap
     ethr =  1.17E-03,  avg # of iterations =  5.0

[...]

     iteration #  3     ecut=    40.00 Ry     beta= 0.10
     RMM-DIIS diagonalization
     ethr =  1.17E-03,  avg # of iterations =  2.5

[...]

     iteration # 15     ecut=    40.00 Ry     beta= 0.10
     Davidson diagonalization with overlap
     c_bands:  1 eigenvalues not converged
     c_bands:  2 eigenvalues not converged
     ethr =  1.94E-09,  avg # of iterations =  7.0

[...]

     total energy              =   -4845.01251684 Ry
     estimated scf accuracy    <       0.00000102 Ry

     iteration # 17     ecut=    40.00 Ry     beta= 0.10
     RMM-DIIS diagonalization
     ethr =  4.47E-10,  avg # of iterations =  2.8

[...]

     Laue-RISM Calculation

     convergence threshold    = 1.000E-06
     iter. #     1  RMS(g-h-1)= 5.887E-05  nbox=  0
     iter. #    11  RMS(g-h-1)= 1.161E-05  nbox= 10
     iter. #    21  RMS(g-h-1)= 4.639E-06  nbox= 20
     iter. #    31  RMS(g-h-1)= 3.155E-06  nbox= 20
     iter. #    41  RMS(g-h-1)= 2.705E-06  nbox= 20
     iter. #    51  RMS(g-h-1)= 2.380E-06  nbox= 20
     iter. #    61  RMS(g-h-1)= 2.089E-06  nbox= 10
     iter. #    71  RMS(g-h-1)= 1.768E-06  nbox=  4
     iter. #    81  RMS(g-h-1)= 1.400E-06  nbox= 14
     iter. #    91  RMS(g-h-1)= 1.150E-06  nbox=  8
     iter. #   101  RMS(g-h-1)= 1.001E-06  nbox=  2
     iter. #   102  RMS(g-h-1)= 9.868E-07  nbox=  3

     End of Laue-RISM calculation

[...]

     solvent charge   -0.19989, renormalised to   -0.20000

     Total number of solvent (in expand-cell)
     H2O           33.116330
     K+             0.567603
     OH-            0.767568

     Total charge of solvent (in expand-cell)
     H2O            0.000006 e
     K+             0.567603 e
     OH-           -0.767496 e
     Total         -0.199887 e

     Chemical potential of solvation (in expand-cell)
     H2O        GaussFluct   0.849703E+00 kcal/mol
     K+         GaussFluct  -0.244175E+03 kcal/mol
     OH-        GaussFluct   0.249035E+03 kcal/mol
     Total      GaussFluct   0.570930E+01 kcal/mol

     End of self-consistent calculation

          k = 0.1250 0.0722 0.0000 ( 19861 PWs)   bands (ev):

  -117.3477-117.3400-117.3397-117.3397-117.0802-117.0726-117.0723-117.0723
  -117.0539-117.0463-117.0460-117.0460 -74.7758 -74.7758 -74.7724 -74.7455
   -74.7356 -74.7353 -74.7353 -74.7208 -74.7208 -74.7207 -74.7030 -74.7023
   -74.5337 -74.5337 -74.5185 -74.5104 -74.5104 -74.4964 -74.4827 -74.4710
   -74.4710 -74.4653 -74.4591 -74.4502 -74.4486 -74.4486 -74.4417 -74.4319
   -74.4280 -74.4250 -74.4247 -74.4247 -74.4022 -74.3954 -74.3950 -74.3950
   -13.2492 -11.2971  -9.8209  -9.5741  -9.4336  -9.4336  -9.2515  -9.2079
    -9.2079  -8.8805  -8.8409  -8.8409  -8.7445  -8.7445  -8.7434  -8.1604
    -8.1604  -8.1484  -7.8079  -7.8062  -7.8022  -7.8022  -7.7686  -7.6988
    -7.6865  -7.5807  -7.5807  -7.5094  -7.4982  -7.4880  -7.4176  -7.3552
    -7.3551  -7.3218  -7.3218  -6.9500  -6.9500  -6.9228  -6.9221  -6.9198
    -6.8470  -6.8431  -6.8431  -6.7580  -6.6104  -6.5252  -6.5229  -6.5229
    -6.4962  -6.4566  -6.4486  -6.4486  -6.4215  -6.4215  -6.4089  -6.4003
    -6.2994  -6.2994  -6.2217  -6.2217  -6.2108  -6.1891  -5.9996  -5.5802
    -4.8391  -4.8391  -4.5023  -4.4816  -3.7978  -3.7978  -2.8140  -2.8140
    -2.5584  -0.5135  -0.2633  -0.2633  -0.1937  -0.1763  -0.1402   0.4781
     0.6273   0.6273   0.7323   0.7941   1.7429   1.9785   1.9957   1.9957
     2.0586

[...]

          k = 0.3750-0.3608 0.0000 ( 19917 PWs)   bands (ev):

  -117.3445-117.3429-117.3407-117.3391-117.0770-117.0754-117.0732-117.0717
  -117.0508-117.0492-117.0470-117.0454 -74.7623 -74.7592 -74.7470 -74.7418
   -74.7413 -74.7393 -74.7364 -74.7343 -74.7337 -74.7267 -74.7132 -74.7084
   -74.5134 -74.5124 -74.5044 -74.4995 -74.4945 -74.4904 -74.4897 -74.4812
   -74.4808 -74.4766 -74.4709 -74.4646 -74.4581 -74.4569 -74.4422 -74.4347
   -74.4289 -74.4275 -74.4255 -74.4241 -74.3994 -74.3979 -74.3959 -74.3945
   -11.8578 -11.0464 -10.0872  -9.7482  -9.5729  -9.0369  -8.9568  -8.8712
    -8.7936  -8.7527  -8.5658  -8.5566  -8.3930  -8.3565  -8.3220  -8.2014
    -8.1726  -8.1579  -8.0925  -8.0827  -7.9819  -7.9631  -7.7975  -7.7920
    -7.6856  -7.6671  -7.5893  -7.5777  -7.5652  -7.5465  -7.5375  -7.5035
    -7.4938  -7.4200  -7.4009  -7.3610  -7.3574  -7.3424  -7.2862  -7.2663
    -7.2179  -7.0540  -7.0357  -7.0010  -6.9337  -6.9272  -6.9075  -6.8817
    -6.8545  -6.8064  -6.7170  -6.6888  -6.6810  -6.6167  -6.6091  -6.5624
    -6.4947  -6.4449  -6.4164  -6.4033  -6.4007  -6.3486  -6.3452  -6.2657
    -5.6763  -4.8859  -4.7509  -4.0725  -3.6918  -2.4500  -2.3355  -2.3069
    -1.1956  -0.5352   0.6422   0.7922   0.8028   1.2258   1.2535   1.6277
     1.6641   1.9027   1.9626   2.0718   2.1491   2.1976   2.6938   2.8451
     2.9887

     the Fermi energy is    -4.8681 ev

!    total energy              =   -4845.01240517 Ry
     estimated scf accuracy    <       0.00000022 Ry
     smearing contrib. (-TS)   =      -0.00756957 Ry
     internal energy E=F+TS    =   -4845.00483559 Ry

     The total energy is F=E-TS. E is the sum of the following terms:
     one-electron contribution =   26884.84066668 Ry
     hartree contribution      =  -13454.73969287 Ry
     xc contribution           =    -465.17341872 Ry
     ewald contribution        =  -17809.95104590 Ry
     solvation energy (RISM)   =       0.01820886 Ry
     level-shifting contrib.   =       0.00044635 Ry

     convergence has been achieved in  17 iterations

     negative rho (up, down):  1.626E-03 0.000E+00

     Forces acting on atoms (cartesian axes, Ry/au):

     atom    1 type  1   force =     0.00030089    0.00017298    0.00542546
     atom    2 type  1   force =    -0.00003008   -0.00001828    0.00136048
     atom    3 type  1   force =    -0.00027190   -0.00015454   -0.00860884
     atom    4 type  1   force =     0.00030220    0.00017424    0.00542611
     atom    5 type  1   force =    -0.00003212   -0.00001860    0.00136092
     atom    6 type  1   force =    -0.00027227   -0.00015577   -0.00861025
     atom    7 type  1   force =     0.00030186    0.00017383    0.00542449
     atom    8 type  1   force =    -0.00003080   -0.00001844    0.00135931
     atom    9 type  1   force =    -0.00027034   -0.00015455   -0.00860854
     atom   10 type  1   force =     0.00030077    0.00017340    0.00542527
     atom   11 type  1   force =    -0.00002944   -0.00001826    0.00136124
     atom   12 type  1   force =    -0.00026877   -0.00015601   -0.00860911

     Total force =     0.017230     Total SCF correction =     0.003204
     SCF correction compared to forces is large: reduce conv_thr to get better values

     Writing all to output data dir ./output/opt.save/ :
     XML data file, charge density, RISM restart, pseudopotentials, RISM molfiles, collected wavefunctions

     General routines

     Parallel routines

     RISM routines

   This run was terminated on:  12: 0:24   9Jun2024

   JOB DONE.