     Program PWSCF v.7.3.1 starts on  9Jun2024 at 11:40:40

     Reading input from espresso.pwi

     Current dimensions of program PWSCF are:
     Max number of different atomic species (ntypx) = 10
     Max number of k-points (npk) =  40000
     Max angular momentum in pseudopotentials (lmaxx) =  4
     Message from routine iosys_1drism:
     default density from MOL file(H2O.tip5p.Nishihara.MOL) is used
     Found identity + ( -0.0000 -0.5000  0.0000) symmetry
     This is a supercell, fractional translations are disabled

     R & G space division:  proc/nbgrp/npool/nimage =      32
     Subspace diagonalization in iterative solution of the eigenvalue problem:
     a serial algorithm will be used

     Molecule # 1 for H2O read from file:
     /beegfs/hotpool/mano/rism/RISM_example/pseudo/H2O.tip5p.Nishihara.MOL
     Density:
         0.23069113E+02 cell^-1
         0.49533751E-02 bohr^-3
         0.55506881E+02 mol/L
         0.99997200E+00 g/cm^3
     Permittivity:
        78.500000
     Number of atoms:   5
     Atoms:
       #  atom      X (angs)      Y (angs)      Z (angs)      Q (e)         E (kcal/mol)  S (angs)
       1  O/h2o     0.00000000   -0.06556000    0.00000000    0.00000000    0.16000000    3.12000000
       2  H/h2o     0.75695000    0.52032000    0.00000000    0.24100000    0.04600000    1.00000000
       3  H/h2o    -0.75695000    0.52032000    0.00000000    0.24100000    0.04600000    1.00000000
       4  L/h2o     0.00000000   -0.46971000    0.57154000   -0.24100000    0.04600000    1.80000000
       5  L/h2o     0.00000000   -0.46971000   -0.57154000   -0.24100000    0.04600000    1.80000000

     Molecule # 2 for K+ read from file:
     /beegfs/hotpool/mano/rism/RISM_example/pseudo/K+.Hagiwara.MOL
     Density:
         0.41560816E+00 cell^-1
         0.89238937E-04 bohr^-3
         0.10000000E+01 mol/L
         0.39098300E-01 g/cm^3
     Number of atoms:   1
     Atoms:
       #  atom      X (angs)      Y (angs)      Z (angs)      Q (e)         E (kcal/mol)  S (angs)
       1  K         0.00000000    0.00000000    0.00000000    1.00000000    0.00032800    4.93462800

     Molecule # 3 for OH- read from file:
     /beegfs/hotpool/mano/rism/RISM_example/pseudo/OH-.oplsaa.MOL
     Density:
         0.41560816E+00 cell^-1
         0.89238937E-04 bohr^-3
         0.10000000E+01 mol/L
         0.17007340E-01 g/cm^3
     Number of atoms:   2
     Atoms:
       #  atom      X (angs)      Y (angs)      Z (angs)      Q (e)         E (kcal/mol)  S (angs)
       1  O/oh      0.00000000    0.00000000    0.00000000   -1.30000000    0.25000000    3.20000000
       2  H/oh      0.95300000    0.00000000    0.00000000    0.30000000    0.04600000    1.00000000

     1D-RISM info
     closure equation        =           KH
     temperature             =     300.0000  kelvin
     coulomb smearing radius =       2.0000  bohr
     number of solvent sites =            8
     number of grids         =         5973
     maximum of R-space      =     999.8326  bohr
     maximum of G-space      =      18.7632  bohr^-1
     number of iterations    =        15000
     convergence threshold   =      1.0E-08
     Gaussian width of bonds =       0.3162  bohr
     size of MDIIS           =           20
     step of MDIIS           =       0.2000
     number of processes     =           32

     Correlation function is read from file

     1D-RISM Calculation

     iter. #     1  RMS(g-h-1)= 9.990E-09  nbox=  0  T=  300.00K

     End of 1D-RISM calculation

     convergence has been achieved in     1 iterations

     Chemical potential of solvation

     H2O        H2O        Closure      0.144018E+01 kcal/mol
                           GaussFluct  -0.702227E+01 kcal/mol

                K+         Closure     -0.280526E+00 kcal/mol
                           GaussFluct  -0.350066E+00 kcal/mol

                OH-        Closure     -0.749876E+00 kcal/mol
                           GaussFluct  -0.841417E+00 kcal/mol

                Total      Closure      0.409778E+00 kcal/mol
                           GaussFluct  -0.821376E+01 kcal/mol

     K+         H2O        Closure     -0.155711E+02 kcal/mol
                           GaussFluct  -0.194311E+02 kcal/mol

[...]

     OH-        H2O        Closure     -0.416233E+02 kcal/mol
                           GaussFluct  -0.467044E+02 kcal/mol

                K+         Closure     -0.351595E+06 kcal/mol
                           GaussFluct  -0.351595E+06 kcal/mol

                OH-        Closure      0.351544E+06 kcal/mol
                           GaussFluct   0.351544E+06 kcal/mol

                Total      Closure     -0.925525E+02 kcal/mol
                           GaussFluct  -0.977562E+02 kcal/mol

     Using Slab Decomposition

     bravais-lattice index     =            0
     lattice parameter (alat)  =       9.7396  a.u.
     unit-cell volume          =    4657.2513 (a.u.)^3
     number of atoms/cell      =           12
     number of atomic types    =            1
     number of electrons       =       228.20
     number of Kohn-Sham states=          137
     kinetic-energy cutoff     =      40.0000  Ry
     charge density cutoff     =     320.0000  Ry
     scf convergence threshold =      1.0E-06
     mixing beta               =       0.1000
     number of iterations used =            8  plain     mixing
     Exchange-correlation= SLA  PW   PBE  PBE
                           (   1   4   3   4   0   0   0)

     Effective Screening Medium Method
     Boundary Conditions: Vacuum-Slab-Vacuum
     total charge in unit cell        =  -0.2000
     grid points for fit at edges     =        4

     celldm(1)=   9.739563  celldm(2)=   0.000000  celldm(3)=   0.000000
     celldm(4)=   0.000000  celldm(5)=   0.000000  celldm(6)=   0.000000

     crystal axes: (cart. coord. in units of alat)
               a(1) = (   1.000000   0.000000   0.000000 )
               a(2) = (   0.500000   0.866025   0.000000 )
               a(3) = (   0.000000   0.000000   5.820773 )

     reciprocal axes: (cart. coord. in units 2 pi/alat)
               b(1) = (  1.000000 -0.577350  0.000000 )
               b(2) = (  0.000000  1.154701  0.000000 )
               b(3) = (  0.000000  0.000000  0.171798 )

     PseudoPot. # 1 for Cu read from file:
     /beegfs/hotpool/mano/rism/RISM_example/pseudo/cu_pbe_v1.2.uspp.F.UPF
     MD5 check sum: 6e991ff952a84172a2a52a1c1e996048
     Pseudo is Ultrasoft + core correction, Zval = 19.0
     Generated by new atomic code, or converted to UPF format
     Using radial grid of  867 points,  6 beta functions with:
                l(1) =   0
                l(2) =   0
                l(3) =   1
                l(4) =   1
                l(5) =   2
                l(6) =   2
     Q(r) pseudized with  8 coefficients,  rinner =    1.150   1.150   1.150
                                                       1.150   1.150

     atomic species   valence    mass     pseudopotential
     Cu               19.00    63.54600     Cu( 1.00)

     No symmetry found

   Cartesian axes

     site n.     atom                  positions (alat units)
         1        Cu     tau(   1) = (   0.0000000   0.0000000  -0.4043952  )
         2        Cu     tau(   2) = (   0.5000000   0.2886751   0.0038531  )
         3        Cu     tau(   3) = (   0.2500000   0.1443376   0.4121014  )
         4        Cu     tau(   4) = (   0.2500000   0.4330127  -0.4043952  )
         5        Cu     tau(   5) = (   0.7500000   0.7216878   0.0038531  )
         6        Cu     tau(   6) = (   0.5000000   0.5773503   0.4121014  )
         7        Cu     tau(   7) = (   0.5000000   0.0000000  -0.4043952  )
         8        Cu     tau(   8) = (   1.0000000   0.2886751   0.0038531  )
         9        Cu     tau(   9) = (   0.7500000   0.1443376   0.4121014  )
        10        Cu     tau(  10) = (   0.7500000   0.4330127  -0.4043952  )
        11        Cu     tau(  11) = (   1.2500000   0.7216878   0.0038531  )
        12        Cu     tau(  12) = (   1.0000000   0.5773503   0.4121014  )

     number of k points=     8  Gaussian smearing, width (Ry)=  0.0100
                       cart. coord. in units 2pi/alat
        k(    1) = (   0.1250000   0.0721688   0.0000000), wk =   0.2500000
        k(    2) = (   0.1250000   0.3608439   0.0000000), wk =   0.2500000
        k(    3) = (   0.1250000  -0.5051815   0.0000000), wk =   0.2500000
        k(    4) = (   0.1250000  -0.2165064   0.0000000), wk =   0.2500000
        k(    5) = (   0.3750000  -0.0721688   0.0000000), wk =   0.2500000
        k(    6) = (   0.3750000   0.2165064   0.0000000), wk =   0.2500000
        k(    7) = (   0.3750000  -0.6495191   0.0000000), wk =   0.2500000
        k(    8) = (   0.3750000  -0.3608439   0.0000000), wk =   0.2500000

     Solute:
       # atom     E (kcal/mol)  S (angs)
       1  Cu      0.00500000    3.11369102    given
       2  Cu      0.00500000    3.11369102    given
       3  Cu      0.00500000    3.11369102    given
       4  Cu      0.00500000    3.11369102    given
       5  Cu      0.00500000    3.11369102    given
       6  Cu      0.00500000    3.11369102    given
       7  Cu      0.00500000    3.11369102    given
       8  Cu      0.00500000    3.11369102    given
       9  Cu      0.00500000    3.11369102    given
      10  Cu      0.00500000    3.11369102    given
      11  Cu      0.00500000    3.11369102    given
      12  Cu      0.00500000    3.11369102    given

     Wall:
       Density =    0.01000000  bohr^-3
       E       =    0.10000000  kcal/mol
       S       =    4.00000000  angs

     Laue-RISM info
     closure equation        =           KH
     temperature             =     300.0000  kelvin
     coulomb smearing radius =       2.0000  bohr
     number of solvent sites =            6
     solvent sites           =    O/h2o   H/h2o   L/h2o       K
     solvent sites           =     O/oh    H/oh
     number of iterations    =        15000
     convergence threshold   =      1.0E-06
     convergence level       =       0.7000
     size of MDIIS           =           20
     step of MDIIS           =       0.1000
     solvent cutoff          =     160.0000  Ry
     Custom grid:   159127 G-vectors     FFT dimensions: (  40,  40, 240)

     Boundary Conditions        : Vacuum-Slab-Solvent
     unit-cell (in bohr)        : [ -28.345892  28.345892]
     expand-cell (in bohr)      : [ -28.345892  89.761991]
     solvent of right (in bohr) : [   0.000000  89.761991]
     buffer  of right (in bohr) : [  -4.015668   0.000000]
     repulsive wall (in bohr)   : [  -Infinity  -2.286274]
     reference of potential     : right-hand side
     #grids to fit at edges of unit-cell =    4
     Laue grid:     1039 Gxy-vectors     FFT dimensions: (  40,  40, 500)

     The initial density is read from file :
     ./output/opt.save/charge-density

     starting charge     228.1000, renormalised to     228.2000

     Correlation function is read from file

     negative rho (up, down):  1.566E-03 0.000E+00

     Laue-RISM Calculation

     convergence threshold    = 1.585E-05
     iter. #     1  RMS(g-h-1)= 5.190E-03  nbox=  0
     iter. #    11  RMS(g-h-1)= 9.226E-04  nbox= 10
     iter. #    21  RMS(g-h-1)= 7.157E-04  nbox= 20
     iter. #    31  RMS(g-h-1)= 6.728E-04  nbox=  2
     iter. #    41  RMS(g-h-1)= 6.569E-04  nbox= 12
     iter. #    51  RMS(g-h-1)= 6.104E-04  nbox=  6
     iter. #    61  RMS(g-h-1)= 5.821E-04  nbox= 16
     iter. #    71  RMS(g-h-1)= 5.442E-04  nbox= 10
     iter. #    81  RMS(g-h-1)= 5.119E-04  nbox=  4
     iter. #    91  RMS(g-h-1)= 4.577E-04  nbox= 14
     iter. #   101  RMS(g-h-1)= 4.346E-04  nbox=  8
     iter. #   111  RMS(g-h-1)= 4.210E-04  nbox=  2
     iter. #   121  RMS(g-h-1)= 4.122E-04  nbox= 12
     iter. #   131  RMS(g-h-1)= 3.980E-04  nbox=  6
     iter. #   141  RMS(g-h-1)= 3.714E-04  nbox= 16
     iter. #   151  RMS(g-h-1)= 3.464E-04  nbox= 10
     iter. #   161  RMS(g-h-1)= 3.209E-04  nbox=  4
     iter. #   171  RMS(g-h-1)= 2.893E-04  nbox= 14
     iter. #   181  RMS(g-h-1)= 2.464E-04  nbox=  8
     iter. #   191  RMS(g-h-1)= 2.132E-04  nbox=  2
     iter. #   201  RMS(g-h-1)= 1.925E-04  nbox= 12
     iter. #   211  RMS(g-h-1)= 1.823E-04  nbox=  6
     iter. #   221  RMS(g-h-1)= 1.750E-04  nbox= 16
     iter. #   231  RMS(g-h-1)= 1.696E-04  nbox= 10
     iter. #   241  RMS(g-h-1)= 1.661E-04  nbox=  4
     iter. #   251  RMS(g-h-1)= 1.635E-04  nbox= 14
     iter. #   261  RMS(g-h-1)= 1.598E-04  nbox=  8
     iter. #   271  RMS(g-h-1)= 1.569E-04  nbox=  2
     iter. #   281  RMS(g-h-1)= 1.504E-04  nbox= 12
     iter. #   291  RMS(g-h-1)= 1.477E-04  nbox=  6
     iter. #   301  RMS(g-h-1)= 1.442E-04  nbox= 16
     iter. #   311  RMS(g-h-1)= 1.400E-04  nbox= 10
     iter. #   321  RMS(g-h-1)= 1.358E-04  nbox=  4
     iter. #   331  RMS(g-h-1)= 1.271E-04  nbox= 14
     iter. #   341  RMS(g-h-1)= 1.210E-04  nbox=  8
     iter. #   351  RMS(g-h-1)= 1.146E-04  nbox=  2
     iter. #   361  RMS(g-h-1)= 1.073E-04  nbox= 12
     iter. #   371  RMS(g-h-1)= 1.033E-04  nbox=  6
     iter. #   381  RMS(g-h-1)= 9.909E-05  nbox= 16
     iter. #   391  RMS(g-h-1)= 9.563E-05  nbox= 10
     iter. #   401  RMS(g-h-1)= 9.106E-05  nbox=  4
     iter. #   411  RMS(g-h-1)= 8.856E-05  nbox= 14
     iter. #   421  RMS(g-h-1)= 8.745E-05  nbox=  8
     iter. #   431  RMS(g-h-1)= 8.559E-05  nbox=  2
     iter. #   441  RMS(g-h-1)= 8.273E-05  nbox= 12
     iter. #   451  RMS(g-h-1)= 7.955E-05  nbox=  6
     iter. #   461  RMS(g-h-1)= 7.638E-05  nbox= 16
     iter. #   471  RMS(g-h-1)= 7.398E-05  nbox= 10
     iter. #   481  RMS(g-h-1)= 7.092E-05  nbox=  4
     iter. #   491  RMS(g-h-1)= 6.743E-05  nbox= 14
     iter. #   501  RMS(g-h-1)= 6.483E-05  nbox=  8
     iter. #   511  RMS(g-h-1)= 6.199E-05  nbox=  2
     iter. #   521  RMS(g-h-1)= 5.887E-05  nbox= 12
     iter. #   531  RMS(g-h-1)= 5.633E-05  nbox=  6
     iter. #   541  RMS(g-h-1)= 5.308E-05  nbox= 16
     iter. #   551  RMS(g-h-1)= 5.085E-05  nbox= 10
     iter. #   561  RMS(g-h-1)= 4.796E-05  nbox=  4
     iter. #   571  RMS(g-h-1)= 4.630E-05  nbox= 14
     iter. #   581  RMS(g-h-1)= 4.230E-05  nbox=  8
     iter. #   591  RMS(g-h-1)= 3.843E-05  nbox=  2
[...]
     iter. #   651  RMS(g-h-1)= 2.593E-05  nbox= 14
     iter. #   661  RMS(g-h-1)= 2.460E-05  nbox=  8
     iter. #   671  RMS(g-h-1)= 2.333E-05  nbox=  2
     iter. #   681  RMS(g-h-1)= 2.219E-05  nbox= 12
     iter. #   691  RMS(g-h-1)= 2.126E-05  nbox=  6
     iter. #   701  RMS(g-h-1)= 2.058E-05  nbox= 16
     iter. #   711  RMS(g-h-1)= 2.030E-05  nbox= 10
     iter. #   721  RMS(g-h-1)= 2.007E-05  nbox=  4
     iter. #   731  RMS(g-h-1)= 1.968E-05  nbox= 14
     iter. #   741  RMS(g-h-1)= 1.926E-05  nbox=  8
     iter. #   751  RMS(g-h-1)= 1.865E-05  nbox=  2
     iter. #   761  RMS(g-h-1)= 1.785E-05  nbox= 12
     iter. #   771  RMS(g-h-1)= 1.705E-05  nbox=  6
     iter. #   781  RMS(g-h-1)= 1.603E-05  nbox= 16
     iter. #   784  RMS(g-h-1)= 1.573E-05  nbox=  3

     End of Laue-RISM calculation

[...]

     solvent charge    0.19806, renormalised to    0.20000

     Total number of solvent (in expand-cell)
     H2O           32.414482
     K+             0.839408
     OH-            0.639696

     Total charge of solvent (in expand-cell)
     H2O           -0.000065 e
     K+             0.839408 e
     OH-           -0.641281 e
     Total          0.198062 e

     Chemical potential of solvation (in expand-cell)
     H2O        GaussFluct   0.461885E+01 kcal/mol
     K+         GaussFluct   0.271019E+03 kcal/mol
     OH-        GaussFluct  -0.266279E+03 kcal/mol
     Total      GaussFluct   0.935883E+01 kcal/mol

     Starting wfcs from file

     Self-consistent Calculation

     iteration #  1     ecut=    40.00 Ry     beta= 0.10
     Davidson diagonalization with overlap
     c_bands:  2 eigenvalues not converged
     c_bands:  5 eigenvalues not converged
     c_bands:  5 eigenvalues not converged
     c_bands:  3 eigenvalues not converged
     c_bands:  5 eigenvalues not converged
     c_bands:  1 eigenvalues not converged
     c_bands:  2 eigenvalues not converged
     c_bands:  5 eigenvalues not converged
     ethr =  1.00E-05,  avg # of iterations = 45.0

[...]

     total energy              =   -4844.53582440 Ry
     estimated scf accuracy    <       3.21524814 Ry

     iteration #  2     ecut=    40.00 Ry     beta= 0.10
     Davidson diagonalization with overlap
     ethr =  1.41E-03,  avg # of iterations =  3.6

[...]

     iteration #  3     ecut=    40.00 Ry     beta= 0.10
     RMM-DIIS diagonalization
     ethr =  1.41E-03,  avg # of iterations =  2.5

[...]

     iteration # 10     ecut=    40.00 Ry     beta= 0.10
     Davidson diagonalization with overlap
     c_bands:  1 eigenvalues not converged
     ethr =  7.38E-09,  avg # of iterations =  8.2

[...]

     total energy              =   -4845.15040030 Ry
     estimated scf accuracy    <       0.00000130 Ry

     iteration # 13     ecut=    40.00 Ry     beta= 0.10
     RMM-DIIS diagonalization
     ethr =  5.71E-10,  avg # of iterations =  2.7

[...]

     Laue-RISM Calculation

     convergence threshold    = 1.000E-06
     iter. #     1  RMS(g-h-1)= 9.858E-05  nbox=  0
     iter. #    11  RMS(g-h-1)= 8.530E-06  nbox= 10
     iter. #    21  RMS(g-h-1)= 3.415E-06  nbox= 20
     iter. #    31  RMS(g-h-1)= 2.463E-06  nbox= 20
     iter. #    41  RMS(g-h-1)= 2.125E-06  nbox=  4
     iter. #    51  RMS(g-h-1)= 1.535E-06  nbox= 14
     iter. #    61  RMS(g-h-1)= 1.100E-06  nbox= 20
     iter. #    71  RMS(g-h-1)= 9.985E-07  nbox=  3

     End of Laue-RISM calculation

[...]

     solvent charge    0.20011, renormalised to    0.20000

     Total number of solvent (in expand-cell)
     H2O           32.397670
     K+             0.846589
     OH-            0.646560

     Total charge of solvent (in expand-cell)
     H2O           -0.000008 e
     K+             0.846589 e
     OH-           -0.646476 e
     Total          0.200105 e

     Chemical potential of solvation (in expand-cell)
     H2O        GaussFluct   0.481157E+01 kcal/mol
     K+         GaussFluct   0.246634E+03 kcal/mol
     OH-        GaussFluct  -0.245472E+03 kcal/mol
     Total      GaussFluct   0.597434E+01 kcal/mol

     End of self-consistent calculation

          k = 0.1250 0.0722 0.0000 ( 19861 PWs)   bands (ev):

  -116.9667-116.9591-116.9588-116.9588-116.7010-116.6934-116.6931-116.6931
  -116.6845-116.6769-116.6766-116.6766 -74.3985 -74.3985 -74.3903 -74.3605
   -74.3505 -74.3501 -74.3501 -74.3445 -74.3399 -74.3399 -74.3268 -74.3203
   -74.1488 -74.1488 -74.1378 -74.1347 -74.1347 -74.1237 -74.0970 -74.0895
   -74.0895 -74.0830 -74.0796 -74.0755 -74.0755 -74.0695 -74.0656 -74.0578
   -74.0554 -74.0508 -74.0505 -74.0505 -74.0391 -74.0324 -74.0321 -74.0321
   -12.8731 -10.9414  -9.4560  -9.1947  -9.0546  -9.0546  -8.8701  -8.8271
    -8.8271  -8.4994  -8.4589  -8.4589  -8.3630  -8.3629  -8.3629  -7.7893
    -7.7893  -7.7792  -7.4355  -7.4301  -7.4243  -7.4243  -7.3881  -7.3251
    -7.3075  -7.2032  -7.2032  -7.1301  -7.1203  -7.1043  -7.0347  -6.9916
    -6.9712  -6.9544  -6.9544  -6.5823  -6.5823  -6.5574  -6.5508  -6.5396
    -6.4721  -6.4719  -6.4719  -6.4367  -6.2348  -6.1818  -6.1461  -6.1461
    -6.1186  -6.0917  -6.0760  -6.0760  -6.0530  -6.0530  -6.0313  -6.0238
    -5.9201  -5.9201  -5.8398  -5.8398  -5.8248  -5.8092  -5.7890  -5.2151
    -4.4732  -4.4732  -4.3923  -4.1623  -3.4517  -3.4517  -2.4600  -2.4600
    -2.2367  -0.6813  -0.0632  -0.0361   0.0568   0.0568   0.1062   0.5635
     0.8177   0.8178   0.8284   1.0180   1.8191   2.0778   2.1418   2.1462
     2.1464

[...]

          k = 0.3750-0.3608 0.0000 ( 19917 PWs)   bands (ev):

  -116.9635-116.9620-116.9597-116.9581-116.6979-116.6963-116.6941-116.6925
  -116.6813-116.6797-116.6775-116.6759 -74.3811 -74.3799 -74.3690 -74.3647
   -74.3571 -74.3562 -74.3541 -74.3513 -74.3491 -74.3478 -74.3329 -74.3267
   -74.1298 -74.1296 -74.1198 -74.1161 -74.1156 -74.1154 -74.1089 -74.1058
   -74.1017 -74.0982 -74.0949 -74.0841 -74.0829 -74.0760 -74.0688 -74.0620
   -74.0548 -74.0533 -74.0513 -74.0499 -74.0363 -74.0349 -74.0329 -74.0315
   -11.4807 -10.6682  -9.7241  -9.3679  -9.2014  -8.6565  -8.5823  -8.4897
    -8.4118  -8.3735  -8.1874  -8.1771  -8.0113  -7.9762  -7.9457  -7.8245
    -7.7970  -7.7826  -7.7111  -7.7071  -7.6009  -7.5904  -7.4247  -7.4189
    -7.3157  -7.2851  -7.2219  -7.2006  -7.1852  -7.1772  -7.1726  -7.1351
    -7.1200  -7.0573  -7.0304  -6.9875  -6.9849  -6.9674  -6.9163  -6.9002
    -6.8450  -6.6862  -6.6829  -6.6276  -6.5643  -6.5586  -6.5391  -6.4988
    -6.4788  -6.4328  -6.3452  -6.3193  -6.3142  -6.2391  -6.2357  -6.1850
    -6.1491  -6.0775  -6.0440  -6.0367  -6.0299  -5.9716  -5.9682  -5.9276
    -5.2988  -4.5473  -4.5276  -3.8458  -3.3198  -2.2233  -2.2136  -2.0002
    -1.1299  -0.2023   0.6192   0.8428   0.9382   1.3323   1.3739   1.4750
     1.9653   1.9904   2.1734   2.2540   2.2573   2.3193   2.9019   2.9338
     3.0731

     the Fermi energy is    -4.5045 ev

!    total energy              =   -4845.15040332 Ry
     estimated scf accuracy    <       0.00000014 Ry
     smearing contrib. (-TS)   =      -0.00833406 Ry
     internal energy E=F+TS    =   -4845.14206926 Ry

     The total energy is F=E-TS. E is the sum of the following terms:
     one-electron contribution =   26977.95790788 Ry
     hartree contribution      =  -13547.84033978 Ry
     xc contribution           =    -465.32857635 Ry
     ewald contribution        =  -17809.95104590 Ry
     solvation energy (RISM)   =       0.01905416 Ry
     level-shifting contrib.   =       0.00093072 Ry

     convergence has been achieved in  13 iterations

     negative rho (up, down):  1.547E-03 0.000E+00

     Forces acting on atoms (cartesian axes, Ry/au):

     atom    1 type  1   force =     0.00016902    0.00010434    0.00498156
     atom    2 type  1   force =    -0.00000749   -0.00000332   -0.00007305
     atom    3 type  1   force =    -0.00017179   -0.00010084   -0.00567466
     atom    4 type  1   force =     0.00017731    0.00010089    0.00498430
     atom    5 type  1   force =    -0.00000314   -0.00000471   -0.00007372
     atom    6 type  1   force =    -0.00016193   -0.00009480   -0.00568237
     atom    7 type  1   force =     0.00017304    0.00010480    0.00498624
     atom    8 type  1   force =    -0.00000238   -0.00000431   -0.00007286
     atom    9 type  1   force =    -0.00016284   -0.00009685   -0.00568290
     atom   10 type  1   force =     0.00017037    0.00009463    0.00498547
     atom   11 type  1   force =    -0.00000872   -0.00000319   -0.00007608
     atom   12 type  1   force =    -0.00017146   -0.00009664   -0.00567313

     Total force =     0.011363     Total SCF correction =     0.001428
     SCF correction compared to forces is large: reduce conv_thr to get better values

     Writing all to output data dir ./output/opt.save/ :
     XML data file, charge density, RISM restart, pseudopotentials, RISM molfiles, collected wavefunctions

     General routines

     Parallel routines

     RISM routines

   This run was terminated on:  11:50:45   9Jun2024

   JOB DONE.