     Program PWSCF v.7.3.1 starts on 10Jun2024 at  9:36:16

     Reading input from scf.in
Warning: card &CELL ignored
Warning: card / ignored
Warning: card &FCP ignored
Warning: card    FCP_MU           = -5.03 ignored
Warning: card    FCP_DYNAMICS     = 'BFGS' ignored
Warning: card    FCP_CONV_THR     = 0.01 ignored
Warning: card    FREEZE_ALL_ATOMS = .FALSE. ignored
Warning: card / ignored
Warning: card &RISM ignored
Warning: card    NSOLV            = 3 ignored
Warning: card    CLOSURE          = 'KH' ignored
Warning: card    TEMPV            = 300.0 ignored
Warning: card    ECUTSOLV         = 160.0 ignored
Warning: card    SOLUTE_LJ(1)     = 'NONE' ignored
Warning: card    SOLUTE_EPSILON(1) = 0.005 ignored
Warning: card    SOLUTE_SIGMA(1)  = 3.11369102 ignored
Warning: card    STARTING1D       = 'ZERO' ignored
Warning: card    STARTING3D       = 'ZERO' ignored
Warning: card    RISM1D_MAXSTEP   = 15000 ignored
Warning: card    RISM3D_MAXSTEP   = 15000 ignored
Warning: card    RISM1D_CONV_THR  = 1E-08 ignored
Warning: card    RISM3D_CONV_THR  = 1E-06 ignored
Warning: card    MDIIS1D_SIZE     = 20 ignored
Warning: card    MDIIS3D_SIZE     = 20 ignored
Warning: card    MDIIS1D_STEP     = 0.2 ignored
Warning: card    MDIIS3D_STEP     = 0.1 ignored
Warning: card    RISM3D_CONV_LEVEL = 0.7 ignored
Warning: card    LAUE_EXPAND_RIGHT = 60 ignored
Warning: card    LAUE_BUFFER_RIGHT = 4.0 ignored
Warning: card / ignored
Warning: card SOLVENTS {MOL/L} ignored
Warning: card H2O -1.0 H2O.TIP5P.NISHIHARA.MOL ignored
Warning: card K+   1.0 K+.HAGIWARA.MOL ignored
Warning: card OH-  1.0 OH-.OPLSAA.MOL ignored

     Current dimensions of program PWSCF are:
     Max number of different atomic species (ntypx) = 10
     Max number of k-points (npk) =  40000
     Max angular momentum in pseudopotentials (lmaxx) =  4

     R & G space division:  proc/nbgrp/npool/nimage =      32
     Subspace diagonalization in iterative solution of the eigenvalue problem:
     a serial algorithm will be used

     Using Slab Decomposition

     bravais-lattice index     =            0
     lattice parameter (alat)  =       9.7396  a.u.
     unit-cell volume          =    4657.2513 (a.u.)^3
     number of atoms/cell      =           12
     number of atomic types    =            1
     number of electrons       =       228.00
     number of Kohn-Sham states=          137
     kinetic-energy cutoff     =      40.0000  Ry
     charge density cutoff     =     320.0000  Ry
     scf convergence threshold =      1.0E-06
     mixing beta               =       0.1000
     number of iterations used =            8  plain     mixing
     energy convergence thresh.=      1.0E-04
     force convergence thresh. =      1.0E-03
     Exchange-correlation= SLA  PW   PBE  PBE
                           (   1   4   3   4   0   0   0)
     nstep                     =           50

     Effective Screening Medium Method
     Boundary Conditions: Vacuum-Slab-Metal
     total charge in unit cell        =   0.0000
     grid points for fit at edges     =        4

     celldm(1)=   9.739563  celldm(2)=   0.000000  celldm(3)=   0.000000
     celldm(4)=   0.000000  celldm(5)=   0.000000  celldm(6)=   0.000000

     crystal axes: (cart. coord. in units of alat)
               a(1) = (   1.000000   0.000000   0.000000 )
               a(2) = (   0.500000   0.866025   0.000000 )
               a(3) = (   0.000000   0.000000   5.820773 )

     reciprocal axes: (cart. coord. in units 2 pi/alat)
               b(1) = (  1.000000 -0.577350  0.000000 )
               b(2) = (  0.000000  1.154701  0.000000 )
               b(3) = (  0.000000  0.000000  0.171798 )

     PseudoPot. # 1 for Cu read from file:
     ../../../pseudo/cu_pbe_v1.2.uspp.F.UPF
     MD5 check sum: 6e991ff952a84172a2a52a1c1e996048
     Pseudo is Ultrasoft + core correction, Zval = 19.0
     Generated by new atomic code, or converted to UPF format
     Using radial grid of  867 points,  6 beta functions with:
                l(1) =   0
                l(2) =   0
                l(3) =   1
                l(4) =   1
                l(5) =   2
                l(6) =   2
     Q(r) pseudized with  8 coefficients,  rinner =    1.150   1.150   1.150
                                                       1.150   1.150

     atomic species   valence    mass     pseudopotential
     Cu               19.00    63.54600     Cu( 1.00)

     No symmetry found

   Cartesian axes

     site n.     atom                  positions (alat units)
         1        Cu     tau(   1) = (   0.0000000   0.0000000  -0.4043952  )
         2        Cu     tau(   2) = (   0.5000000   0.2886751   0.0038531  )
         3        Cu     tau(   3) = (   0.2494813   0.1438951   0.4046548  )
         4        Cu     tau(   4) = (   0.2500000   0.4330127  -0.4043952  )
         5        Cu     tau(   5) = (   0.7500000   0.7216878   0.0038531  )
         6        Cu     tau(   6) = (   0.4995199   0.5769009   0.4047081  )
         7        Cu     tau(   7) = (   0.5000000   0.0000000  -0.4043952  )
         8        Cu     tau(   8) = (   1.0000000   0.2886751   0.0038531  )
         9        Cu     tau(   9) = (   0.7494475   0.1438808   0.4047696  )
        10        Cu     tau(  10) = (   0.7500000   0.4330127  -0.4043952  )
        11        Cu     tau(  11) = (   1.2500000   0.7216878   0.0038531  )
        12        Cu     tau(  12) = (   0.9994872   0.5768887   0.4048458  )

     number of k points=     8  Gaussian smearing, width (Ry)=  0.0100
                       cart. coord. in units 2pi/alat
        k(    1) = (   0.1250000   0.0721688   0.0000000), wk =   0.2500000
        k(    2) = (   0.1250000   0.3608439   0.0000000), wk =   0.2500000
        k(    3) = (   0.1250000  -0.5051815   0.0000000), wk =   0.2500000
        k(    4) = (   0.1250000  -0.2165064   0.0000000), wk =   0.2500000
        k(    5) = (   0.3750000  -0.0721688   0.0000000), wk =   0.2500000
        k(    6) = (   0.3750000   0.2165064   0.0000000), wk =   0.2500000
        k(    7) = (   0.3750000  -0.6495191   0.0000000), wk =   0.2500000
        k(    8) = (   0.3750000  -0.3608439   0.0000000), wk =   0.2500000

     Initial potential from superposition of free atoms

     starting charge     216.0000, renormalised to     228.0000

     negative rho (up, down):  4.189E-03 0.000E+00
     Starting wfcs are  156 randomized atomic wfcs

     Self-consistent Calculation

     iteration #  1     ecut=    40.00 Ry     beta= 0.10
     Davidson diagonalization with overlap
     ethr =  1.00E-02,  avg # of iterations =  6.5

     negative rho (up, down):  2.096E-03 0.000E+00

     total energy              =   -4843.91466072 Ry
     estimated scf accuracy    <      69.28537048 Ry

[...]

     iteration #  6     ecut=    40.00 Ry     beta= 0.10
     Davidson diagonalization with overlap
     c_bands:  3 eigenvalues not converged
     c_bands:  4 eigenvalues not converged
     c_bands:  5 eigenvalues not converged
     c_bands:  4 eigenvalues not converged
     c_bands:  4 eigenvalues not converged
     c_bands:  4 eigenvalues not converged
     c_bands:  4 eigenvalues not converged
     c_bands:  3 eigenvalues not converged
     ethr =  2.19E-04,  avg # of iterations = 20.0

[...]

     iteration # 17     ecut=    40.00 Ry     beta= 0.10
     Davidson diagonalization with overlap
     c_bands:  2 eigenvalues not converged
     ethr =  1.74E-08,  avg # of iterations =  7.0

[...]

     End of self-consistent calculation

          k = 0.1250 0.0722 0.0000 ( 19861 PWs)   bands (ev):

  -117.2168-117.2091-117.2088-117.2088-116.9516-116.9442-116.9437-116.9435
  -116.9261-116.9185-116.9182-116.9182 -74.6438 -74.6438 -74.6408 -74.6176
   -74.6074 -74.6070 -74.6070 -74.5889 -74.5889 -74.5884 -74.5706 -74.5705
   -74.3998 -74.3997 -74.3880 -74.3764 -74.3763 -74.3646 -74.3483 -74.3401
   -74.3401 -74.3309 -74.3247 -74.3200 -74.3165 -74.3165 -74.3106 -74.3073
   -74.3041 -74.3037 -74.3034 -74.2963 -74.2813 -74.2745 -74.2742 -74.2742
   -13.1561 -11.1830  -9.6992  -9.4736  -9.3312  -9.3311  -9.1448  -9.1026
    -9.1026  -8.7654  -8.7296  -8.7295  -8.6219  -8.6194  -8.6194  -8.0470
    -8.0468  -8.0365  -7.6864  -7.6632  -7.6596  -7.6592  -7.6216  -7.5703
    -7.5641  -7.4768  -7.4767  -7.4054  -7.3749  -7.3702  -7.2803  -7.2448
    -7.2187  -7.2120  -7.2117  -6.8247  -6.8245  -6.7969  -6.7956  -6.7881
    -6.7238  -6.7193  -6.7193  -6.6512  -6.4839  -6.4022  -6.3884  -6.3884
    -6.3612  -6.3272  -6.3145  -6.3145  -6.2872  -6.2871  -6.2689  -6.2582
    -6.1633  -6.1633  -6.0834  -6.0834  -6.0755  -6.0506  -5.9398  -5.4597
    -4.7196  -4.7191  -4.4654  -4.3844  -3.6823  -3.6817  -2.6899  -2.6888
    -2.4339  -0.4958  -0.2372  -0.1447  -0.1299  -0.1286  -0.0789   0.4524
     0.6846   0.6848   0.7141   0.8607   1.7148   1.9760   2.0418   2.0425
     2.0750

[...]

     the Fermi energy is    -4.7334 ev

!    total energy              =   -4845.10106943 Ry
     estimated scf accuracy    <       0.00000065 Ry
     smearing contrib. (-TS)   =      -0.00789808 Ry
     internal energy E=F+TS    =   -4845.09317135 Ry

     The total energy is F=E-TS. E is the sum of the following terms:
     one-electron contribution = -423912.13737850 Ry
     hartree contribution      =  211921.46044624 Ry
     xc contribution           =    -465.29175400 Ry
     ewald contribution        =  207610.87551490 Ry

     convergence has been achieved in  18 iterations

[...]

     Forces acting on atoms (cartesian axes, Ry/au):

     atom    1 type  1   force =     0.00046764    0.00007790    0.00627501
     atom    2 type  1   force =    -0.00000149    0.00001002   -0.00682906
     atom    3 type  1   force =    -0.00025538   -0.00000113    0.00114989
     atom    4 type  1   force =     0.00018586    0.00006329    0.00616872
     atom    5 type  1   force =    -0.00007515   -0.00000304   -0.00683953
     atom    6 type  1   force =    -0.00024131   -0.00009066    0.00113172
     atom    7 type  1   force =    -0.00003986    0.00001064    0.00639644
     atom    8 type  1   force =    -0.00019188   -0.00027248   -0.00656267
     atom    9 type  1   force =    -0.00002482   -0.00013532    0.00104552
     atom   10 type  1   force =     0.00024170    0.00026343    0.00627479
     atom   11 type  1   force =     0.00000714    0.00009234   -0.00666521
     atom   12 type  1   force =    -0.00007245   -0.00001498    0.00110158

     Total force =     0.002251     Total SCF correction =     0.005237
     SCF correction compared to forces is large: reduce conv_thr to get better values

     BFGS Geometry Optimization
     Energy error            =      4.5E-06 Ry
     Gradient error          =      1.1E-03 Ry/Bohr

     number of scf cycles    =   1
     number of bfgs steps    =   0

     energy             new  =   -4845.1010694335 Ry

     new trust radius        =       0.0011779081 bohr
     new conv_thr            =       0.0000010000 Ry

ATOMIC_POSITIONS (angstrom)
Cu               0.0000000000        0.0000000000       -2.0842344718    0   0   0
Cu               2.5769773314        1.4878185560        0.0198587084    0   0   0
Cu               1.2856801132        0.7416279918        2.0861811343
Cu               1.2884886657        2.2317278340       -2.0842344718    0   0   0
Cu               3.8654659971        3.7195463900        0.0198587084    0   0   0
Cu               2.5743752788        2.9732730301        2.0864461315
Cu               2.5769773314        0.0000000000       -2.0842344718    0   0   0
Cu               5.1539546628        1.4878185560        0.0198587084    0   0   0
Cu               3.8626052395        0.7414834787        2.0867176509
Cu               3.8654659971        2.2317278340       -2.0842344718    0   0   0
Cu               6.4424433285        3.7195463900        0.0198587084    0   0   0
Cu               5.1512733235        2.9732504357        2.0871398088

     Writing config-only to output data dir ./output/opt.save/ :
     XML data file
     NEW-OLD atomic charge density approx. for the potential

[...]

     Threshold (ethr) on eigenvalues was too large:
     Diagonalizing with lowered threshold

     Davidson diagonalization with overlap
     ethr =  3.57E-08,  avg # of iterations =  5.0

[...]

     Total force =     0.011776     Total SCF correction =     0.013931
     SCF correction compared to forces is large: reduce conv_thr to get better values
     Energy error            =      2.1E-06 Ry
     Gradient error          =      5.9E-03 Ry/Bohr

     number of scf cycles    =   2
     number of bfgs steps    =   1

     energy             old  =   -4845.1010694335 Ry
     energy             new  =   -4845.1010673827 Ry

     CASE: energy            _new > energy            _old

     new trust radius        =       0.0004192334 bohr
     new conv_thr            =       0.0000010000 Ry

ATOMIC_POSITIONS (angstrom)
Cu               0.0000000000        0.0000000000       -2.0842344718    0   0   0
Cu               2.5769773314        1.4878185560        0.0198587084    0   0   0
Cu               1.2857671570        0.7416283755        2.0857892108
Cu               1.2884886657        2.2317278340       -2.0842344718    0   0   0
Cu               3.8654659971        3.7195463900        0.0198587084    0   0   0
Cu               2.5744575263        2.9733039312        2.0860604010
Cu               2.5769773314        0.0000000000       -2.0842344718    0   0   0
Cu               5.1539546628        1.4878185560        0.0198587084    0   0   0
Cu               3.8626136975        0.7415296004        2.0863612991
Cu               3.8654659971        2.2317278340       -2.0842344718    0   0   0
Cu               6.4424433285        3.7195463900        0.0198587084    0   0   0
Cu               5.1512980169        2.9732555426        2.0867643521

     Writing config-only to output data dir ./output/opt.save/ :
     XML data file
     NEW-OLD atomic charge density approx. for the potential

[...]

     Self-consistent Calculation

[...]

     Threshold (ethr) on eigenvalues was too large:
     Diagonalizing with lowered threshold

     Davidson diagonalization with overlap
     ethr =  2.58E-08,  avg # of iterations =  4.8

[...]

     total energy              =   -4845.10107483 Ry
     estimated scf accuracy    <       0.00000120 Ry

     iteration #  5     ecut=    40.00 Ry     beta= 0.10
     Davidson diagonalization with overlap
     ethr =  5.24E-10,  avg # of iterations =  6.0

[...]

     End of self-consistent calculation

[...]

          k = 0.3750-0.3608 0.0000 ( 19917 PWs)   bands (ev):

  -117.2124-117.2108-117.2086-117.2070-116.9465-116.9448-116.9427-116.9410
  -116.9212-116.9196-116.9174-116.9158 -74.6294 -74.6260 -74.6137 -74.6120
   -74.6099 -74.6082 -74.6069 -74.6048 -74.6001 -74.5933 -74.5800 -74.5754
   -74.3787 -74.3783 -74.3688 -74.3647 -74.3581 -74.3554 -74.3553 -74.3469
   -74.3457 -74.3415 -74.3350 -74.3316 -74.3246 -74.3237 -74.3083 -74.3055
   -74.3040 -74.3022 -74.3013 -74.3007 -74.2765 -74.2751 -74.2731 -74.2716
   -11.7632 -10.9519  -9.9718  -9.6540  -9.4583  -8.9260  -8.8386  -8.7756
    -8.6852  -8.6347  -8.4562  -8.4441  -8.2817  -8.2451  -8.2023  -8.0853
    -8.0612  -8.0515  -7.9635  -7.9624  -7.8526  -7.8520  -7.6633  -7.6597
    -7.5624  -7.5314  -7.4628  -7.4442  -7.4388  -7.4251  -7.4199  -7.3777
    -7.3594  -7.2926  -7.2735  -7.2354  -7.2295  -7.2109  -7.1698  -7.1479
    -7.0902  -6.9259  -6.9146  -6.8614  -6.8083  -6.7955  -6.7734  -6.7449
    -6.7129  -6.6746  -6.5888  -6.5508  -6.5489  -6.4802  -6.4700  -6.4242
    -6.3696  -6.3096  -6.2727  -6.2684  -6.2593  -6.2069  -6.2053  -6.1407
    -5.5429  -4.7637  -4.6602  -3.9726  -3.5688  -2.3429  -2.2721  -2.2178
    -1.1641  -0.4166   0.7535   0.8172   0.8204   1.2241   1.2779   1.6656
     1.7383   1.9127   2.0580   2.0897   2.1716   2.2062   2.7744   2.8615
     2.9944

     the Fermi energy is    -4.7316 ev

!    total energy              =   -4845.10107006 Ry
     estimated scf accuracy    <       0.00000018 Ry
     smearing contrib. (-TS)   =      -0.00789849 Ry
     internal energy E=F+TS    =   -4845.09317157 Ry

     The total energy is F=E-TS. E is the sum of the following terms:
     one-electron contribution = -423908.62070662 Ry
     hartree contribution      =  211919.68162381 Ry
     xc contribution           =    -465.29180382 Ry
     ewald contribution        =  207609.13771506 Ry

     convergence has been achieved in   5 iterations

     negative rho (up, down):  1.537E-03 0.000E+00

     Forces acting on atoms (cartesian axes, Ry/au):

     atom    1 type  1   force =     0.00033455    0.00017125    0.00596115
     atom    2 type  1   force =     0.00002974   -0.00003890   -0.00537090
     atom    3 type  1   force =    -0.00058350    0.00000046    0.00030922
     atom    4 type  1   force =     0.00031581    0.00017224    0.00595533
     atom    5 type  1   force =     0.00003679   -0.00004866   -0.00536843
     atom    6 type  1   force =    -0.00060269   -0.00016506    0.00023574
     atom    7 type  1   force =     0.00030834    0.00016276    0.00596565
     atom    8 type  1   force =    -0.00002881   -0.00003635   -0.00529705
     atom    9 type  1   force =    -0.00000876   -0.00032744    0.00002760
     atom   10 type  1   force =     0.00032822    0.00018572    0.00596752
     atom   11 type  1   force =    -0.00001069   -0.00001688   -0.00529579
     atom   12 type  1   force =    -0.00011899   -0.00005914    0.00006868

     Total force =     0.001006     Total SCF correction =     0.002967
     SCF correction compared to forces is large: reduce conv_thr to get better values
     Energy error            =      6.3E-07 Ry
     Gradient error          =      6.0E-04 Ry/Bohr

     bfgs converged in   3 scf cycles and   1 bfgs steps
     (criteria: energy <  1.0E-04 Ry, force <  1.0E-03 Ry/Bohr)

     End of BFGS Geometry Optimization

     Final energy             =   -4845.1010700593 Ry

     File ./output/opt.bfgs deleted, as requested
Begin final coordinates

ATOMIC_POSITIONS (angstrom)
Cu               0.0000000000        0.0000000000       -2.0842344718    0   0   0
Cu               2.5769773314        1.4878185560        0.0198587084    0   0   0
Cu               1.2857671570        0.7416283755        2.0857892108
Cu               1.2884886657        2.2317278340       -2.0842344718    0   0   0
Cu               3.8654659971        3.7195463900        0.0198587084    0   0   0
Cu               2.5744575263        2.9733039312        2.0860604010
Cu               2.5769773314        0.0000000000       -2.0842344718    0   0   0
Cu               5.1539546628        1.4878185560        0.0198587084    0   0   0
Cu               3.8626136975        0.7415296004        2.0863612991
Cu               3.8654659971        2.2317278340       -2.0842344718    0   0   0
Cu               6.4424433285        3.7195463900        0.0198587084    0   0   0
Cu               5.1512980169        2.9732555426        2.0867643521
End final coordinates

     Writing all to output data dir ./output/opt.save/ :
     XML data file, charge density, pseudopotentials, collected wavefunctions

     General routines

     Parallel routines

   This run was terminated on:   9:38:15  10Jun2024

   JOB DONE.