     Program PWSCF v.7.3.1 starts on  9Jun2024 at 11:17:52

     Reading input from espresso.pwi

     Current dimensions of program PWSCF are:
     Max number of different atomic species (ntypx) = 10
     Max number of k-points (npk) =  40000
     Max angular momentum in pseudopotentials (lmaxx) =  4
     Message from routine iosys_1drism:
     default density from MOL file(H2O.tip5p.Nishihara.MOL) is used
     Found identity + ( -0.0000 -0.5000  0.0000) symmetry
     This is a supercell, fractional translations are disabled

     R & G space division:  proc/nbgrp/npool/nimage =      32
     Subspace diagonalization in iterative solution of the eigenvalue problem:
     a serial algorithm will be used

     Molecule # 1 for H2O read from file:
     /beegfs/hotpool/mano/rism/RISM_example/pseudo/H2O.tip5p.Nishihara.MOL
     Density:
         0.23069113E+02 cell^-1
         0.49533751E-02 bohr^-3
         0.55506881E+02 mol/L
         0.99997200E+00 g/cm^3
     Permittivity:
        78.500000
     Number of atoms:   5
     Atoms:
       #  atom      X (angs)      Y (angs)      Z (angs)      Q (e)         E (kcal/mol)  S (angs)
       1  O/h2o     0.00000000   -0.06556000    0.00000000    0.00000000    0.16000000    3.12000000
       2  H/h2o     0.75695000    0.52032000    0.00000000    0.24100000    0.04600000    1.00000000
       3  H/h2o    -0.75695000    0.52032000    0.00000000    0.24100000    0.04600000    1.00000000
       4  L/h2o     0.00000000   -0.46971000    0.57154000   -0.24100000    0.04600000    1.80000000
       5  L/h2o     0.00000000   -0.46971000   -0.57154000   -0.24100000    0.04600000    1.80000000

     Molecule # 2 for K+ read from file:
     /beegfs/hotpool/mano/rism/RISM_example/pseudo/K+.Hagiwara.MOL
     Density:
         0.41560816E+00 cell^-1
         0.89238937E-04 bohr^-3
         0.10000000E+01 mol/L
         0.39098300E-01 g/cm^3
     Number of atoms:   1
     Atoms:
       #  atom      X (angs)      Y (angs)      Z (angs)      Q (e)         E (kcal/mol)  S (angs)
       1  K         0.00000000    0.00000000    0.00000000    1.00000000    0.00032800    4.93462800

     Molecule # 3 for OH- read from file:
     /beegfs/hotpool/mano/rism/RISM_example/pseudo/OH-.oplsaa.MOL
     Density:
         0.41560816E+00 cell^-1
         0.89238937E-04 bohr^-3
         0.10000000E+01 mol/L
         0.17007340E-01 g/cm^3
     Number of atoms:   2
     Atoms:
       #  atom      X (angs)      Y (angs)      Z (angs)      Q (e)         E (kcal/mol)  S (angs)
       1  O/oh      0.00000000    0.00000000    0.00000000   -1.30000000    0.25000000    3.20000000
       2  H/oh      0.95300000    0.00000000    0.00000000    0.30000000    0.04600000    1.00000000

     1D-RISM info
     closure equation        =           KH
     temperature             =     300.0000  kelvin
     coulomb smearing radius =       2.0000  bohr
     number of solvent sites =            8
     number of grids         =         5973
     maximum of R-space      =     999.8326  bohr
     maximum of G-space      =      18.7632  bohr^-1
     number of iterations    =        15000
     convergence threshold   =      1.0E-08
     Gaussian width of bonds =       0.3162  bohr
     size of MDIIS           =           20
     step of MDIIS           =       0.2000
     number of processes     =           32

     1D-RISM Calculation

     iter. #     1  RMS(g-h-1)= 7.798E-04  nbox=  0  T= 2400.00K
     iter. #   101  RMS(g-h-1)= 1.222E-06  nbox= 20  T= 1600.00K
     iter. #   201  RMS(g-h-1)= 3.438E-06  nbox= 20  T=  711.11K
     iter. #   301  RMS(g-h-1)= 2.056E-06  nbox= 20  T=  474.07K
     iter. #   401  RMS(g-h-1)= 1.763E-06  nbox= 20  T=  316.05K
     iter. #   501  RMS(g-h-1)= 4.735E-07  nbox= 20  T=  300.00K
     iter. #   601  RMS(g-h-1)= 1.657E-07  nbox= 20  T=  300.00K
     iter. #   701  RMS(g-h-1)= 1.104E-07  nbox= 20  T=  300.00K
     iter. #   801  RMS(g-h-1)= 9.032E-08  nbox= 20  T=  300.00K
     iter. #   901  RMS(g-h-1)= 7.143E-08  nbox= 20  T=  300.00K
     iter. #  1001  RMS(g-h-1)= 6.179E-08  nbox= 20  T=  300.00K
     iter. #  1101  RMS(g-h-1)= 5.327E-08  nbox= 20  T=  300.00K
     iter. #  1201  RMS(g-h-1)= 4.801E-08  nbox= 20  T=  300.00K
     iter. #  1301  RMS(g-h-1)= 4.365E-08  nbox= 20  T=  300.00K
     iter. #  1401  RMS(g-h-1)= 3.851E-08  nbox= 20  T=  300.00K
     iter. #  1501  RMS(g-h-1)= 3.354E-08  nbox= 20  T=  300.00K
     iter. #  1601  RMS(g-h-1)= 3.242E-08  nbox= 20  T=  300.00K
     iter. #  1701  RMS(g-h-1)= 3.257E-08  nbox= 20  T=  300.00K
     iter. #  1801  RMS(g-h-1)= 3.202E-08  nbox= 20  T=  300.00K
     iter. #  1901  RMS(g-h-1)= 3.140E-08  nbox= 20  T=  300.00K
     iter. #  2001  RMS(g-h-1)= 3.103E-08  nbox= 20  T=  300.00K
     iter. #  2101  RMS(g-h-1)= 3.002E-08  nbox= 20  T=  300.00K
     iter. #  2201  RMS(g-h-1)= 2.905E-08  nbox= 20  T=  300.00K
     iter. #  2301  RMS(g-h-1)= 2.778E-08  nbox= 20  T=  300.00K
     iter. #  2401  RMS(g-h-1)= 2.679E-08  nbox= 20  T=  300.00K
     iter. #  2501  RMS(g-h-1)= 2.575E-08  nbox= 20  T=  300.00K
     iter. #  2601  RMS(g-h-1)= 2.414E-08  nbox= 20  T=  300.00K
     iter. #  2701  RMS(g-h-1)= 2.261E-08  nbox= 20  T=  300.00K
     iter. #  2801  RMS(g-h-1)= 2.036E-08  nbox= 20  T=  300.00K
     iter. #  2901  RMS(g-h-1)= 1.928E-08  nbox= 20  T=  300.00K
     iter. #  3001  RMS(g-h-1)= 1.846E-08  nbox= 20  T=  300.00K
     iter. #  3101  RMS(g-h-1)= 1.770E-08  nbox= 20  T=  300.00K
     iter. #  3201  RMS(g-h-1)= 1.694E-08  nbox= 20  T=  300.00K
     iter. #  3301  RMS(g-h-1)= 1.611E-08  nbox= 20  T=  300.00K
     iter. #  3401  RMS(g-h-1)= 1.540E-08  nbox= 20  T=  300.00K
     iter. #  3501  RMS(g-h-1)= 1.439E-08  nbox= 20  T=  300.00K
     iter. #  3601  RMS(g-h-1)= 1.361E-08  nbox= 20  T=  300.00K
     iter. #  3701  RMS(g-h-1)= 1.289E-08  nbox= 20  T=  300.00K
     iter. #  3801  RMS(g-h-1)= 1.230E-08  nbox= 20  T=  300.00K
     iter. #  3901  RMS(g-h-1)= 1.185E-08  nbox= 20  T=  300.00K
     iter. #  4001  RMS(g-h-1)= 1.140E-08  nbox= 20  T=  300.00K
     iter. #  4101  RMS(g-h-1)= 1.087E-08  nbox= 20  T=  300.00K
     iter. #  4201  RMS(g-h-1)= 1.038E-08  nbox= 20  T=  300.00K
     iter. #  4284  RMS(g-h-1)= 9.990E-09  nbox= 20  T=  300.00K

     End of 1D-RISM calculation

     convergence has been achieved in  4284 iterations

     Chemical potential of solvation

     H2O        H2O        Closure      0.144018E+01 kcal/mol
                           GaussFluct  -0.702227E+01 kcal/mol

                K+         Closure     -0.280526E+00 kcal/mol
                           GaussFluct  -0.350066E+00 kcal/mol

                OH-        Closure     -0.749876E+00 kcal/mol
                           GaussFluct  -0.841417E+00 kcal/mol

                Total      Closure      0.409778E+00 kcal/mol
                           GaussFluct  -0.821376E+01 kcal/mol

     K+         H2O        Closure     -0.155711E+02 kcal/mol
                           GaussFluct  -0.194311E+02 kcal/mol

[...]

     OH-        H2O        Closure     -0.416233E+02 kcal/mol
                           GaussFluct  -0.467044E+02 kcal/mol

                K+         Closure     -0.351595E+06 kcal/mol
                           GaussFluct  -0.351595E+06 kcal/mol

                OH-        Closure      0.351544E+06 kcal/mol
                           GaussFluct   0.351544E+06 kcal/mol

                Total      Closure     -0.925525E+02 kcal/mol
                           GaussFluct  -0.977562E+02 kcal/mol

     Using Slab Decomposition

     bravais-lattice index     =            0
     lattice parameter (alat)  =       9.7396  a.u.
     unit-cell volume          =    4657.2513 (a.u.)^3
     number of atoms/cell      =           12
     number of atomic types    =            1
     number of electrons       =       228.00
     number of Kohn-Sham states=          137
     kinetic-energy cutoff     =      40.0000  Ry
     charge density cutoff     =     320.0000  Ry
     scf convergence threshold =      1.0E-06
     mixing beta               =       0.1000
     number of iterations used =            8  plain     mixing
     Exchange-correlation= SLA  PW   PBE  PBE
                           (   1   4   3   4   0   0   0)

     Effective Screening Medium Method
     Boundary Conditions: Vacuum-Slab-Vacuum
     total charge in unit cell        =   0.0000
     grid points for fit at edges     =        4

     celldm(1)=   9.739563  celldm(2)=   0.000000  celldm(3)=   0.000000
     celldm(4)=   0.000000  celldm(5)=   0.000000  celldm(6)=   0.000000

     crystal axes: (cart. coord. in units of alat)
               a(1) = (   1.000000   0.000000   0.000000 )
               a(2) = (   0.500000   0.866025   0.000000 )
               a(3) = (   0.000000   0.000000   5.820773 )

     reciprocal axes: (cart. coord. in units 2 pi/alat)
               b(1) = (  1.000000 -0.577350  0.000000 )
               b(2) = (  0.000000  1.154701  0.000000 )
               b(3) = (  0.000000  0.000000  0.171798 )

     PseudoPot. # 1 for Cu read from file:
     /beegfs/hotpool/mano/rism/RISM_example/pseudo/cu_pbe_v1.2.uspp.F.UPF
     MD5 check sum: 6e991ff952a84172a2a52a1c1e996048
     Pseudo is Ultrasoft + core correction, Zval = 19.0
     Generated by new atomic code, or converted to UPF format
     Using radial grid of  867 points,  6 beta functions with:
                l(1) =   0
                l(2) =   0
                l(3) =   1
                l(4) =   1
                l(5) =   2
                l(6) =   2
     Q(r) pseudized with  8 coefficients,  rinner =    1.150   1.150   1.150
                                                       1.150   1.150

     atomic species   valence    mass     pseudopotential
     Cu               19.00    63.54600     Cu( 1.00)

     No symmetry found

   Cartesian axes

     site n.     atom                  positions (alat units)
         1        Cu     tau(   1) = (   0.0000000   0.0000000  -0.4043952  )
         2        Cu     tau(   2) = (   0.5000000   0.2886751   0.0038531  )
         3        Cu     tau(   3) = (   0.2500000   0.1443376   0.4121014  )
         4        Cu     tau(   4) = (   0.2500000   0.4330127  -0.4043952  )
         5        Cu     tau(   5) = (   0.7500000   0.7216878   0.0038531  )
         6        Cu     tau(   6) = (   0.5000000   0.5773503   0.4121014  )
         7        Cu     tau(   7) = (   0.5000000   0.0000000  -0.4043952  )
         8        Cu     tau(   8) = (   1.0000000   0.2886751   0.0038531  )
         9        Cu     tau(   9) = (   0.7500000   0.1443376   0.4121014  )
        10        Cu     tau(  10) = (   0.7500000   0.4330127  -0.4043952  )
        11        Cu     tau(  11) = (   1.2500000   0.7216878   0.0038531  )
        12        Cu     tau(  12) = (   1.0000000   0.5773503   0.4121014  )

     number of k points=     8  Gaussian smearing, width (Ry)=  0.0100
                       cart. coord. in units 2pi/alat
        k(    1) = (   0.1250000   0.0721688   0.0000000), wk =   0.2500000
        k(    2) = (   0.1250000   0.3608439   0.0000000), wk =   0.2500000
        k(    3) = (   0.1250000  -0.5051815   0.0000000), wk =   0.2500000
        k(    4) = (   0.1250000  -0.2165064   0.0000000), wk =   0.2500000
        k(    5) = (   0.3750000  -0.0721688   0.0000000), wk =   0.2500000
        k(    6) = (   0.3750000   0.2165064   0.0000000), wk =   0.2500000
        k(    7) = (   0.3750000  -0.6495191   0.0000000), wk =   0.2500000
        k(    8) = (   0.3750000  -0.3608439   0.0000000), wk =   0.2500000

     Solute:
       # atom     E (kcal/mol)  S (angs)
       1  Cu      0.00500000    3.11369102    given
       2  Cu      0.00500000    3.11369102    given
       3  Cu      0.00500000    3.11369102    given
       4  Cu      0.00500000    3.11369102    given
       5  Cu      0.00500000    3.11369102    given
       6  Cu      0.00500000    3.11369102    given
       7  Cu      0.00500000    3.11369102    given
       8  Cu      0.00500000    3.11369102    given
       9  Cu      0.00500000    3.11369102    given
      10  Cu      0.00500000    3.11369102    given
      11  Cu      0.00500000    3.11369102    given
      12  Cu      0.00500000    3.11369102    given

     Wall:
       Density =    0.01000000  bohr^-3
       E       =    0.10000000  kcal/mol
       S       =    4.00000000  angs

     Laue-RISM info
     closure equation        =           KH
     temperature             =     300.0000  kelvin
     coulomb smearing radius =       2.0000  bohr
     number of solvent sites =            6
     solvent sites           =    O/h2o   H/h2o   L/h2o       K
     solvent sites           =     O/oh    H/oh
     number of iterations    =        15000
     convergence threshold   =      1.0E-06
     convergence level       =       0.7000
     size of MDIIS           =           20
     step of MDIIS           =       0.1000
     solvent cutoff          =     160.0000  Ry
     Custom grid:   159127 G-vectors     FFT dimensions: (  40,  40, 240)

     Boundary Conditions        : Vacuum-Slab-Solvent
     unit-cell (in bohr)        : [ -28.345892  28.345892]
     expand-cell (in bohr)      : [ -28.345892  89.761991]
     solvent of right (in bohr) : [   0.000000  89.761991]
     buffer  of right (in bohr) : [  -4.015668   0.000000]
     repulsive wall (in bohr)   : [  -Infinity  -2.286274]
     reference of potential     : right-hand side
     #grids to fit at edges of unit-cell =    4
     Laue grid:     1039 Gxy-vectors     FFT dimensions: (  40,  40, 500)

     Initial potential from superposition of free atoms

     starting charge     216.0000, renormalised to     228.0000

     negative rho (up, down):  4.341E-03 0.000E+00

     Laue-RISM Calculation

     convergence threshold    = 1.585E-05
     iter. #     1  RMS(g-h-1)= 1.997E+00  nbox=  0
     iter. #    11  RMS(g-h-1)= 1.119E-01  nbox= 10
     iter. #    21  RMS(g-h-1)= 7.686E-02  nbox= 20
     iter. #    31  RMS(g-h-1)= 2.962E-02  nbox= 20
     iter. #    41  RMS(g-h-1)= 1.970E-02  nbox= 20
     iter. #    51  RMS(g-h-1)= 1.449E-02  nbox= 20
     iter. #    61  RMS(g-h-1)= 1.155E-02  nbox= 20
     iter. #    71  RMS(g-h-1)= 9.543E-03  nbox=  5
     iter. #    81  RMS(g-h-1)= 7.895E-03  nbox= 15
     iter. #    91  RMS(g-h-1)= 5.778E-03  nbox=  7
     iter. #   101  RMS(g-h-1)= 4.348E-03  nbox= 17
     iter. #   111  RMS(g-h-1)= 3.143E-03  nbox= 20
     iter. #   121  RMS(g-h-1)= 2.515E-03  nbox= 20
     iter. #   131  RMS(g-h-1)= 2.128E-03  nbox=  6
     iter. #   141  RMS(g-h-1)= 1.764E-03  nbox= 16
     iter. #   151  RMS(g-h-1)= 1.507E-03  nbox= 10
     iter. #   161  RMS(g-h-1)= 1.313E-03  nbox=  4
     iter. #   171  RMS(g-h-1)= 1.178E-03  nbox= 14
     iter. #   181  RMS(g-h-1)= 9.881E-04  nbox=  8
     iter. #   191  RMS(g-h-1)= 8.708E-04  nbox=  2
     iter. #   201  RMS(g-h-1)= 7.280E-04  nbox= 12
     iter. #   211  RMS(g-h-1)= 6.158E-04  nbox=  6
     iter. #   221  RMS(g-h-1)= 5.324E-04  nbox= 16
     iter. #   231  RMS(g-h-1)= 4.883E-04  nbox= 10
     iter. #   241  RMS(g-h-1)= 4.348E-04  nbox=  4
     iter. #   251  RMS(g-h-1)= 3.948E-04  nbox= 14
     iter. #   261  RMS(g-h-1)= 3.644E-04  nbox=  8
     iter. #   271  RMS(g-h-1)= 3.435E-04  nbox=  2
     iter. #   281  RMS(g-h-1)= 3.206E-04  nbox= 12
     iter. #   291  RMS(g-h-1)= 2.980E-04  nbox=  6
     iter. #   301  RMS(g-h-1)= 2.820E-04  nbox= 16
     iter. #   311  RMS(g-h-1)= 2.546E-04  nbox= 10
     iter. #   321  RMS(g-h-1)= 2.401E-04  nbox=  4
     iter. #   331  RMS(g-h-1)= 2.340E-04  nbox= 14
     iter. #   341  RMS(g-h-1)= 2.274E-04  nbox=  8
     iter. #   351  RMS(g-h-1)= 2.247E-04  nbox=  2
     iter. #   361  RMS(g-h-1)= 2.181E-04  nbox= 12
     iter. #   371  RMS(g-h-1)= 2.058E-04  nbox=  6
     iter. #   381  RMS(g-h-1)= 1.940E-04  nbox= 16
     iter. #   391  RMS(g-h-1)= 1.852E-04  nbox= 10
     iter. #   401  RMS(g-h-1)= 1.690E-04  nbox=  4
     iter. #   411  RMS(g-h-1)= 1.598E-04  nbox= 14
     iter. #   421  RMS(g-h-1)= 1.437E-04  nbox=  8
     iter. #   431  RMS(g-h-1)= 1.313E-04  nbox=  2
     iter. #   441  RMS(g-h-1)= 1.239E-04  nbox= 12
     iter. #   451  RMS(g-h-1)= 1.209E-04  nbox=  6
     iter. #   461  RMS(g-h-1)= 1.165E-04  nbox= 16
     iter. #   471  RMS(g-h-1)= 1.137E-04  nbox= 10
     iter. #   481  RMS(g-h-1)= 1.090E-04  nbox=  4
     iter. #   491  RMS(g-h-1)= 1.052E-04  nbox= 14
     iter. #   501  RMS(g-h-1)= 1.027E-04  nbox=  8
     iter. #   511  RMS(g-h-1)= 1.005E-04  nbox=  2
     iter. #   521  RMS(g-h-1)= 9.621E-05  nbox= 12
     iter. #   531  RMS(g-h-1)= 9.264E-05  nbox=  6
     iter. #   541  RMS(g-h-1)= 8.953E-05  nbox= 16
     iter. #   551  RMS(g-h-1)= 8.763E-05  nbox= 10
     iter. #   561  RMS(g-h-1)= 8.428E-05  nbox=  4
     iter. #   571  RMS(g-h-1)= 8.111E-05  nbox= 14
     iter. #   581  RMS(g-h-1)= 7.826E-05  nbox=  8
     iter. #   591  RMS(g-h-1)= 7.391E-05  nbox=  2
[...]
     iter. #   741  RMS(g-h-1)= 3.161E-05  nbox=  8
     iter. #   751  RMS(g-h-1)= 3.151E-05  nbox=  2
     iter. #   761  RMS(g-h-1)= 3.079E-05  nbox= 12
     iter. #   771  RMS(g-h-1)= 3.041E-05  nbox=  6
     iter. #   781  RMS(g-h-1)= 3.003E-05  nbox= 16
     iter. #   791  RMS(g-h-1)= 2.948E-05  nbox= 10
     iter. #   801  RMS(g-h-1)= 2.764E-05  nbox=  4
     iter. #   811  RMS(g-h-1)= 2.390E-05  nbox= 14
     iter. #   821  RMS(g-h-1)= 2.099E-05  nbox=  8
     iter. #   831  RMS(g-h-1)= 1.958E-05  nbox=  2
     iter. #   841  RMS(g-h-1)= 1.840E-05  nbox= 12
     iter. #   851  RMS(g-h-1)= 1.754E-05  nbox=  6
     iter. #   861  RMS(g-h-1)= 1.659E-05  nbox= 16
     iter. #   871  RMS(g-h-1)= 1.596E-05  nbox= 10
     iter. #   874  RMS(g-h-1)= 1.580E-05  nbox= 13

     End of Laue-RISM calculation

[...]

     solvent charge    0.00071, renormalised to    0.00000

     Total number of solvent (in expand-cell)
     H2O           32.709316
     K+             0.636552
     OH-            0.636788

     Total charge of solvent (in expand-cell)
     H2O           -0.000076 e
     K+             0.636552 e
     OH-           -0.635763 e
     Total          0.000712 e

     Chemical potential of solvation (in expand-cell)
     H2O        GaussFluct   0.544744E+01 kcal/mol
     K+         GaussFluct   0.290623E+00 kcal/mol
     OH-        GaussFluct  -0.421891E-01 kcal/mol
     Total      GaussFluct   0.569588E+01 kcal/mol

     Starting wfcs are  156 randomized atomic wfcs

     Self-consistent Calculation

     iteration #  1     ecut=    40.00 Ry     beta= 0.10
     Davidson diagonalization with overlap
     ethr =  1.00E-02,  avg # of iterations =  6.5

[...]

     total energy              =   -4843.87117879 Ry
     estimated scf accuracy    <      70.29624715 Ry

     iteration #  2     ecut=    40.00 Ry     beta= 0.10
     Davidson diagonalization with overlap
     ethr =  1.00E-02,  avg # of iterations =  2.0

[...]

     iteration #  3     ecut=    40.00 Ry     beta= 0.10
     RMM-DIIS diagonalization
     ethr =  9.77E-03,  avg # of iterations =  2.8

[...]

     iteration #  5     ecut=    40.00 Ry     beta= 0.10
     Davidson diagonalization with overlap
     c_bands:  4 eigenvalues not converged
     c_bands:  4 eigenvalues not converged
     c_bands:  1 eigenvalues not converged
     c_bands:  3 eigenvalues not converged
     c_bands:  5 eigenvalues not converged
     c_bands:  4 eigenvalues not converged
     c_bands:  4 eigenvalues not converged
     c_bands:  2 eigenvalues not converged
     ethr =  1.78E-04,  avg # of iterations = 22.5

[...]

     iteration # 15     ecut=    40.00 Ry     beta= 0.10
     Davidson diagonalization with overlap
     c_bands:  2 eigenvalues not converged
     c_bands:  3 eigenvalues not converged
     ethr =  2.47E-08,  avg # of iterations =  9.4

[...]

     total energy              =   -4845.08248303 Ry
     estimated scf accuracy    <       0.00000192 Ry

     iteration # 17     ecut=    40.00 Ry     beta= 0.10
     RMM-DIIS diagonalization
     ethr =  7.43E-10,  avg # of iterations =  3.0

[...]

     Laue-RISM Calculation

     convergence threshold    = 1.000E-06
     iter. #     1  RMS(g-h-1)= 5.633E-05  nbox=  0
     iter. #    11  RMS(g-h-1)= 3.824E-06  nbox=  6
     iter. #    21  RMS(g-h-1)= 1.976E-06  nbox= 16
     iter. #    31  RMS(g-h-1)= 1.500E-06  nbox= 20
     iter. #    41  RMS(g-h-1)= 1.388E-06  nbox=  3
     iter. #    51  RMS(g-h-1)= 1.187E-06  nbox= 13
     iter. #    61  RMS(g-h-1)= 1.076E-06  nbox=  7
     iter. #    70  RMS(g-h-1)= 9.951E-07  nbox= 16

     End of Laue-RISM calculation

[...]

     solvent charge   -0.00006, renormalised to   -0.00000

     Total number of solvent (in expand-cell)
     H2O           32.745988
     K+             0.644440
     OH-            0.644477

     Total charge of solvent (in expand-cell)
     H2O           -0.000005 e
     K+             0.644440 e
     OH-           -0.644495 e
     Total         -0.000060 e

     Chemical potential of solvation (in expand-cell)
     H2O        GaussFluct   0.514454E+01 kcal/mol
     K+         GaussFluct  -0.240050E+00 kcal/mol
     OH-        GaussFluct   0.504068E+00 kcal/mol
     Total      GaussFluct   0.540856E+01 kcal/mol

     End of self-consistent calculation

          k = 0.1250 0.0722 0.0000 ( 19861 PWs)   bands (ev):

  -117.0639-117.0562-117.0559-117.0559-116.7893-116.7866-116.7817-116.7814
  -116.7814-116.7790-116.7787-116.7787 -74.4937 -74.4937 -74.4881 -74.4600
   -74.4500 -74.4497 -74.4497 -74.4391 -74.4371 -74.4371 -74.4214 -74.4180
   -74.2405 -74.2405 -74.2375 -74.2375 -74.2276 -74.2246 -74.1889 -74.1864
   -74.1795 -74.1795 -74.1770 -74.1770 -74.1714 -74.1689 -74.1591 -74.1566
   -74.1450 -74.1401 -74.1374 -74.1371 -74.1371 -74.1339 -74.1336 -74.1336
   -12.9692 -11.0278  -9.5468  -9.2919  -9.1516  -9.1516  -8.9682  -8.9248
    -8.9248  -8.5972  -8.5572  -8.5572  -8.4610  -8.4610  -8.4607  -7.8836
    -7.8836  -7.8725  -7.5279  -7.5268  -7.5210  -7.5210  -7.4862  -7.4197
    -7.4040  -7.2998  -7.2998  -7.2274  -7.2162  -7.2027  -7.1332  -7.0827
    -7.0701  -7.0472  -7.0472  -6.6750  -6.6750  -6.6486  -6.6430  -6.6370
    -6.5684  -6.5663  -6.5663  -6.5011  -6.3313  -6.2626  -6.2422  -6.2422
    -6.2150  -6.1832  -6.1698  -6.1698  -6.1467  -6.1467  -6.1277  -6.1209
    -6.0164  -6.0164  -5.9380  -5.9380  -5.9211  -5.9091  -5.8050  -5.3062
    -4.5645  -4.5645  -4.3587  -4.2414  -3.5336  -3.5336  -2.5459  -2.5459
    -2.3066  -0.4985  -0.1670  -0.0984  -0.0086  -0.0086   0.0515   0.5018
     0.7709   0.8150   0.8150   1.0000   1.7696   2.0334   2.1550   2.1550
     2.1836

[...]

          k = 0.3750-0.3608 0.0000 ( 19917 PWs)   bands (ev):

  -117.0607-117.0591-117.0569-117.0553-116.7861-116.7846-116.7834-116.7824
  -116.7819-116.7808-116.7796-116.7781 -74.4783 -74.4761 -74.4646 -74.4599
   -74.4557 -74.4537 -74.4519 -74.4508 -74.4487 -74.4439 -74.4298 -74.4243
   -74.2207 -74.2203 -74.2180 -74.2176 -74.2112 -74.2086 -74.2069 -74.2043
   -74.2007 -74.1982 -74.1887 -74.1862 -74.1730 -74.1705 -74.1657 -74.1632
   -74.1416 -74.1400 -74.1378 -74.1377 -74.1365 -74.1364 -74.1346 -74.1331
   -11.5772 -10.7652  -9.8138  -9.4658  -9.2950  -8.7542  -8.6775  -8.5880
    -8.5103  -8.4706  -8.2839  -8.2741  -8.1094  -8.0735  -8.0413  -7.9206
    -7.8924  -7.8781  -7.8090  -7.8021  -7.6988  -7.6845  -7.5190  -7.5131
    -7.4076  -7.3835  -7.3152  -7.2966  -7.2826  -7.2692  -7.2622  -7.2277
    -7.2152  -7.1478  -7.1234  -7.0818  -7.0811  -7.0634  -7.0102  -6.9903
    -6.9396  -6.7761  -6.7698  -6.7226  -6.6577  -6.6510  -6.6318  -6.5967
    -6.5748  -6.5276  -6.4392  -6.4126  -6.4058  -6.3326  -6.3324  -6.2820
    -6.2313  -6.1702  -6.1381  -6.1283  -6.1242  -6.0683  -6.0646  -6.0063
    -5.3948  -4.6250  -4.5489  -3.8688  -3.4135  -2.2411  -2.1760  -2.0763
    -1.0703  -0.2768   0.8017   0.8829   0.9145   1.2547   1.2890   1.6561
     1.8901   1.9294   2.1129   2.1923   2.1990   2.2257   2.8784   2.9112
     3.0187

     the Fermi energy is    -4.5922 ev

!    total energy              =   -4845.08253962 Ry
     estimated scf accuracy    <       0.00000021 Ry
     smearing contrib. (-TS)   =      -0.00807061 Ry
     internal energy E=F+TS    =   -4845.07446901 Ry

     The total energy is F=E-TS. E is the sum of the following terms:
     one-electron contribution =   26930.34409607 Ry
     hartree contribution      =  -13500.23018030 Ry
     xc contribution           =    -465.25458859 Ry
     ewald contribution        =  -17809.95104590 Ry
     solvation energy (RISM)   =       0.01724970 Ry

     convergence has been achieved in  17 iterations

     negative rho (up, down):  1.586E-03 0.000E+00

     Forces acting on atoms (cartesian axes, Ry/au):

     atom    1 type  1   force =     0.00030454    0.00016532    0.00569763
     atom    2 type  1   force =    -0.00002170   -0.00002665   -0.00005710
     atom    3 type  1   force =    -0.00022851   -0.00015271   -0.00700904
     atom    4 type  1   force =     0.00029567    0.00009594    0.00570575
     atom    5 type  1   force =    -0.00000960    0.00002941   -0.00005029
     atom    6 type  1   force =    -0.00027043   -0.00014153   -0.00695727
     atom    7 type  1   force =     0.00020187    0.00019610    0.00571296
     atom    8 type  1   force =     0.00000147   -0.00006675   -0.00003107
     atom    9 type  1   force =    -0.00026633   -0.00017947   -0.00695827
     atom   10 type  1   force =     0.00021183    0.00015070    0.00568567
     atom   11 type  1   force =     0.00000687    0.00004677   -0.00003193
     atom   12 type  1   force =    -0.00022568   -0.00011712   -0.00699778

     Total force =     0.013973     Total SCF correction =     0.000318

     Writing all to output data dir ./output/opt.save/ :
     XML data file, charge density, RISM restart, pseudopotentials, RISM molfiles, collected wavefunctions

     General routines

     Parallel routines

     RISM routines

   This run was terminated on:  11:29:58   9Jun2024

   JOB DONE.