     Program PWSCF v.7.3.1 starts on  9Jun2024 at 11:20:34

     Reading input from espresso.pwi

     Current dimensions of program PWSCF are:
     Max number of different atomic species (ntypx) = 10
     Max number of k-points (npk) =  40000
     Max angular momentum in pseudopotentials (lmaxx) =  4
     Message from routine iosys_1drism:
     default density from MOL file(H2O.tip5p.Nishihara.MOL) is used
     Found identity + ( -0.0000 -0.5000  0.0000) symmetry
     This is a supercell, fractional translations are disabled

     R & G space division:  proc/nbgrp/npool/nimage =      32
     Subspace diagonalization in iterative solution of the eigenvalue problem:
     a serial algorithm will be used

     Molecule # 1 for H2O read from file:
     /beegfs/hotpool/mano/rism/RISM_example/pseudo/H2O.tip5p.Nishihara.MOL
     Density:
         0.23069113E+02 cell^-1
         0.49533751E-02 bohr^-3
         0.55506881E+02 mol/L
         0.99997200E+00 g/cm^3
     Permittivity:
        78.500000
     Number of atoms:   5
     Atoms:
       #  atom      X (angs)      Y (angs)      Z (angs)      Q (e)         E (kcal/mol)  S (angs)
       1  O/h2o     0.00000000   -0.06556000    0.00000000    0.00000000    0.16000000    3.12000000
       2  H/h2o     0.75695000    0.52032000    0.00000000    0.24100000    0.04600000    1.00000000
       3  H/h2o    -0.75695000    0.52032000    0.00000000    0.24100000    0.04600000    1.00000000
       4  L/h2o     0.00000000   -0.46971000    0.57154000   -0.24100000    0.04600000    1.80000000
       5  L/h2o     0.00000000   -0.46971000   -0.57154000   -0.24100000    0.04600000    1.80000000

     Molecule # 2 for K+ read from file:
     /beegfs/hotpool/mano/rism/RISM_example/pseudo/K+.Hagiwara.MOL
     Density:
         0.41560816E+00 cell^-1
         0.89238937E-04 bohr^-3
         0.10000000E+01 mol/L
         0.39098300E-01 g/cm^3
     Number of atoms:   1
     Atoms:
       #  atom      X (angs)      Y (angs)      Z (angs)      Q (e)         E (kcal/mol)  S (angs)
       1  K         0.00000000    0.00000000    0.00000000    1.00000000    0.00032800    4.93462800

     Molecule # 3 for OH- read from file:
     /beegfs/hotpool/mano/rism/RISM_example/pseudo/OH-.oplsaa.MOL
     Density:
         0.41560816E+00 cell^-1
         0.89238937E-04 bohr^-3
         0.10000000E+01 mol/L
         0.17007340E-01 g/cm^3
     Number of atoms:   2
     Atoms:
       #  atom      X (angs)      Y (angs)      Z (angs)      Q (e)         E (kcal/mol)  S (angs)
       1  O/oh      0.00000000    0.00000000    0.00000000   -1.30000000    0.25000000    3.20000000
       2  H/oh      0.95300000    0.00000000    0.00000000    0.30000000    0.04600000    1.00000000

     1D-RISM info
     closure equation        =           KH
     temperature             =     300.0000  kelvin
     coulomb smearing radius =       2.0000  bohr
     number of solvent sites =            8
     number of grids         =         5973
     maximum of R-space      =     999.8326  bohr
     maximum of G-space      =      18.7632  bohr^-1
     number of iterations    =        15000
     convergence threshold   =      1.0E-08
     Gaussian width of bonds =       0.3162  bohr
     size of MDIIS           =           20
     step of MDIIS           =       0.2000
     number of processes     =           32

     1D-RISM Calculation

     iter. #     1  RMS(g-h-1)= 7.798E-04  nbox=  0  T= 2400.00K
     iter. #   101  RMS(g-h-1)= 1.222E-06  nbox= 20  T= 1600.00K
     iter. #   201  RMS(g-h-1)= 3.438E-06  nbox= 20  T=  711.11K
     iter. #   301  RMS(g-h-1)= 2.056E-06  nbox= 20  T=  474.07K
     iter. #   401  RMS(g-h-1)= 1.763E-06  nbox= 20  T=  316.05K
     iter. #   501  RMS(g-h-1)= 4.735E-07  nbox= 20  T=  300.00K
     iter. #   601  RMS(g-h-1)= 1.657E-07  nbox= 20  T=  300.00K
     iter. #   701  RMS(g-h-1)= 1.104E-07  nbox= 20  T=  300.00K
     iter. #   801  RMS(g-h-1)= 9.032E-08  nbox= 20  T=  300.00K
     iter. #   901  RMS(g-h-1)= 7.143E-08  nbox= 20  T=  300.00K
     iter. #  1001  RMS(g-h-1)= 6.179E-08  nbox= 20  T=  300.00K
     iter. #  1101  RMS(g-h-1)= 5.327E-08  nbox= 20  T=  300.00K
     iter. #  1201  RMS(g-h-1)= 4.801E-08  nbox= 20  T=  300.00K
     iter. #  1301  RMS(g-h-1)= 4.365E-08  nbox= 20  T=  300.00K
     iter. #  1401  RMS(g-h-1)= 3.851E-08  nbox= 20  T=  300.00K
     iter. #  1501  RMS(g-h-1)= 3.354E-08  nbox= 20  T=  300.00K
     iter. #  1601  RMS(g-h-1)= 3.242E-08  nbox= 20  T=  300.00K
     iter. #  1701  RMS(g-h-1)= 3.257E-08  nbox= 20  T=  300.00K
     iter. #  1801  RMS(g-h-1)= 3.202E-08  nbox= 20  T=  300.00K
     iter. #  1901  RMS(g-h-1)= 3.140E-08  nbox= 20  T=  300.00K
     iter. #  2001  RMS(g-h-1)= 3.103E-08  nbox= 20  T=  300.00K
     iter. #  2101  RMS(g-h-1)= 3.002E-08  nbox= 20  T=  300.00K
     iter. #  2201  RMS(g-h-1)= 2.905E-08  nbox= 20  T=  300.00K
     iter. #  2301  RMS(g-h-1)= 2.778E-08  nbox= 20  T=  300.00K
     iter. #  2401  RMS(g-h-1)= 2.679E-08  nbox= 20  T=  300.00K
     iter. #  2501  RMS(g-h-1)= 2.575E-08  nbox= 20  T=  300.00K
     iter. #  2601  RMS(g-h-1)= 2.414E-08  nbox= 20  T=  300.00K
     iter. #  2701  RMS(g-h-1)= 2.261E-08  nbox= 20  T=  300.00K
     iter. #  2801  RMS(g-h-1)= 2.036E-08  nbox= 20  T=  300.00K
     iter. #  2901  RMS(g-h-1)= 1.928E-08  nbox= 20  T=  300.00K
     iter. #  3001  RMS(g-h-1)= 1.846E-08  nbox= 20  T=  300.00K
     iter. #  3101  RMS(g-h-1)= 1.770E-08  nbox= 20  T=  300.00K
     iter. #  3201  RMS(g-h-1)= 1.694E-08  nbox= 20  T=  300.00K
     iter. #  3301  RMS(g-h-1)= 1.611E-08  nbox= 20  T=  300.00K
     iter. #  3401  RMS(g-h-1)= 1.540E-08  nbox= 20  T=  300.00K
     iter. #  3501  RMS(g-h-1)= 1.439E-08  nbox= 20  T=  300.00K
     iter. #  3601  RMS(g-h-1)= 1.361E-08  nbox= 20  T=  300.00K
     iter. #  3701  RMS(g-h-1)= 1.289E-08  nbox= 20  T=  300.00K
     iter. #  3801  RMS(g-h-1)= 1.230E-08  nbox= 20  T=  300.00K
     iter. #  3901  RMS(g-h-1)= 1.185E-08  nbox= 20  T=  300.00K
     iter. #  4001  RMS(g-h-1)= 1.140E-08  nbox= 20  T=  300.00K
     iter. #  4101  RMS(g-h-1)= 1.087E-08  nbox= 20  T=  300.00K
     iter. #  4201  RMS(g-h-1)= 1.038E-08  nbox= 20  T=  300.00K
     iter. #  4284  RMS(g-h-1)= 9.990E-09  nbox= 20  T=  300.00K

     End of 1D-RISM calculation

     convergence has been achieved in  4284 iterations

     Chemical potential of solvation

     H2O        H2O        Closure      0.144018E+01 kcal/mol
                           GaussFluct  -0.702227E+01 kcal/mol

                K+         Closure     -0.280526E+00 kcal/mol
                           GaussFluct  -0.350066E+00 kcal/mol

                OH-        Closure     -0.749876E+00 kcal/mol
                           GaussFluct  -0.841417E+00 kcal/mol

                Total      Closure      0.409778E+00 kcal/mol
                           GaussFluct  -0.821376E+01 kcal/mol

     K+         H2O        Closure     -0.155711E+02 kcal/mol
                           GaussFluct  -0.194311E+02 kcal/mol

[...]

     OH-        H2O        Closure     -0.416233E+02 kcal/mol
                           GaussFluct  -0.467044E+02 kcal/mol

                K+         Closure     -0.351595E+06 kcal/mol
                           GaussFluct  -0.351595E+06 kcal/mol

                OH-        Closure      0.351544E+06 kcal/mol
                           GaussFluct   0.351544E+06 kcal/mol

                Total      Closure     -0.925525E+02 kcal/mol
                           GaussFluct  -0.977562E+02 kcal/mol

     Using Slab Decomposition

     bravais-lattice index     =            0
     lattice parameter (alat)  =       9.7396  a.u.
     unit-cell volume          =    4657.2513 (a.u.)^3
     number of atoms/cell      =           12
     number of atomic types    =            1
     number of electrons       =       228.10
     number of Kohn-Sham states=          137
     kinetic-energy cutoff     =      40.0000  Ry
     charge density cutoff     =     320.0000  Ry
     scf convergence threshold =      1.0E-06
     mixing beta               =       0.1000
     number of iterations used =            8  plain     mixing
     Exchange-correlation= SLA  PW   PBE  PBE
                           (   1   4   3   4   0   0   0)

     Effective Screening Medium Method
     Boundary Conditions: Vacuum-Slab-Vacuum
     total charge in unit cell        =  -0.1000
     grid points for fit at edges     =        4

     celldm(1)=   9.739563  celldm(2)=   0.000000  celldm(3)=   0.000000
     celldm(4)=   0.000000  celldm(5)=   0.000000  celldm(6)=   0.000000

     crystal axes: (cart. coord. in units of alat)
               a(1) = (   1.000000   0.000000   0.000000 )
               a(2) = (   0.500000   0.866025   0.000000 )
               a(3) = (   0.000000   0.000000   5.820773 )

     reciprocal axes: (cart. coord. in units 2 pi/alat)
               b(1) = (  1.000000 -0.577350  0.000000 )
               b(2) = (  0.000000  1.154701  0.000000 )
               b(3) = (  0.000000  0.000000  0.171798 )

     PseudoPot. # 1 for Cu read from file:
     /beegfs/hotpool/mano/rism/RISM_example/pseudo/cu_pbe_v1.2.uspp.F.UPF
     MD5 check sum: 6e991ff952a84172a2a52a1c1e996048
     Pseudo is Ultrasoft + core correction, Zval = 19.0
     Generated by new atomic code, or converted to UPF format
     Using radial grid of  867 points,  6 beta functions with:
                l(1) =   0
                l(2) =   0
                l(3) =   1
                l(4) =   1
                l(5) =   2
                l(6) =   2
     Q(r) pseudized with  8 coefficients,  rinner =    1.150   1.150   1.150
                                                       1.150   1.150

     atomic species   valence    mass     pseudopotential
     Cu               19.00    63.54600     Cu( 1.00)

     No symmetry found

   Cartesian axes

     site n.     atom                  positions (alat units)
         1        Cu     tau(   1) = (   0.0000000   0.0000000  -0.4043952  )
         2        Cu     tau(   2) = (   0.5000000   0.2886751   0.0038531  )
         3        Cu     tau(   3) = (   0.2500000   0.1443376   0.4121014  )
         4        Cu     tau(   4) = (   0.2500000   0.4330127  -0.4043952  )
         5        Cu     tau(   5) = (   0.7500000   0.7216878   0.0038531  )
         6        Cu     tau(   6) = (   0.5000000   0.5773503   0.4121014  )
         7        Cu     tau(   7) = (   0.5000000   0.0000000  -0.4043952  )
         8        Cu     tau(   8) = (   1.0000000   0.2886751   0.0038531  )
         9        Cu     tau(   9) = (   0.7500000   0.1443376   0.4121014  )
        10        Cu     tau(  10) = (   0.7500000   0.4330127  -0.4043952  )
        11        Cu     tau(  11) = (   1.2500000   0.7216878   0.0038531  )
        12        Cu     tau(  12) = (   1.0000000   0.5773503   0.4121014  )

     number of k points=     8  Gaussian smearing, width (Ry)=  0.0100
                       cart. coord. in units 2pi/alat
        k(    1) = (   0.1250000   0.0721688   0.0000000), wk =   0.2500000
        k(    2) = (   0.1250000   0.3608439   0.0000000), wk =   0.2500000
        k(    3) = (   0.1250000  -0.5051815   0.0000000), wk =   0.2500000
        k(    4) = (   0.1250000  -0.2165064   0.0000000), wk =   0.2500000
        k(    5) = (   0.3750000  -0.0721688   0.0000000), wk =   0.2500000
        k(    6) = (   0.3750000   0.2165064   0.0000000), wk =   0.2500000
        k(    7) = (   0.3750000  -0.6495191   0.0000000), wk =   0.2500000
        k(    8) = (   0.3750000  -0.3608439   0.0000000), wk =   0.2500000

     Solute:
       # atom     E (kcal/mol)  S (angs)
       1  Cu      0.00500000    3.11369102    given
       2  Cu      0.00500000    3.11369102    given
       3  Cu      0.00500000    3.11369102    given
       4  Cu      0.00500000    3.11369102    given
       5  Cu      0.00500000    3.11369102    given
       6  Cu      0.00500000    3.11369102    given
       7  Cu      0.00500000    3.11369102    given
       8  Cu      0.00500000    3.11369102    given
       9  Cu      0.00500000    3.11369102    given
      10  Cu      0.00500000    3.11369102    given
      11  Cu      0.00500000    3.11369102    given
      12  Cu      0.00500000    3.11369102    given

     Wall:
       Density =    0.01000000  bohr^-3
       E       =    0.10000000  kcal/mol
       S       =    4.00000000  angs

     Laue-RISM info
     closure equation        =           KH
     temperature             =     300.0000  kelvin
     coulomb smearing radius =       2.0000  bohr
     number of solvent sites =            6
     solvent sites           =    O/h2o   H/h2o   L/h2o       K
     solvent sites           =     O/oh    H/oh
     number of iterations    =        15000
     convergence threshold   =      1.0E-06
     convergence level       =       0.7000
     size of MDIIS           =           20
     step of MDIIS           =       0.1000
     solvent cutoff          =     160.0000  Ry
     Custom grid:   159127 G-vectors     FFT dimensions: (  40,  40, 240)

     Boundary Conditions        : Vacuum-Slab-Solvent
     unit-cell (in bohr)        : [ -28.345892  28.345892]
     expand-cell (in bohr)      : [ -28.345892  89.761991]
     solvent of right (in bohr) : [   0.000000  89.761991]
     buffer  of right (in bohr) : [  -4.015668   0.000000]
     repulsive wall (in bohr)   : [  -Infinity  -2.286274]
     reference of potential     : right-hand side
     #grids to fit at edges of unit-cell =    4
     Laue grid:     1039 Gxy-vectors     FFT dimensions: (  40,  40, 500)

     Initial potential from superposition of free atoms

     starting charge     216.0000, renormalised to     228.1000

     negative rho (up, down):  4.343E-03 0.000E+00

     Laue-RISM Calculation

     convergence threshold    = 1.585E-05
     iter. #     1  RMS(g-h-1)= 1.885E+00  nbox=  0
     iter. #    11  RMS(g-h-1)= 1.039E-01  nbox= 10
     iter. #    21  RMS(g-h-1)= 7.272E-02  nbox= 20
     iter. #    31  RMS(g-h-1)= 2.792E-02  nbox= 20
     iter. #    41  RMS(g-h-1)= 1.694E-02  nbox= 20
     iter. #    51  RMS(g-h-1)= 1.667E-02  nbox= 20
     iter. #    61  RMS(g-h-1)= 1.341E-02  nbox=  5
     iter. #    71  RMS(g-h-1)= 8.983E-03  nbox= 15
     iter. #    81  RMS(g-h-1)= 7.215E-03  nbox= 20
     iter. #    91  RMS(g-h-1)= 5.542E-03  nbox= 20
     iter. #   101  RMS(g-h-1)= 4.246E-03  nbox= 20
     iter. #   111  RMS(g-h-1)= 3.508E-03  nbox= 20
     iter. #   121  RMS(g-h-1)= 3.325E-03  nbox=  5
     iter. #   131  RMS(g-h-1)= 2.517E-03  nbox= 15
     iter. #   141  RMS(g-h-1)= 2.035E-03  nbox= 20
     iter. #   151  RMS(g-h-1)= 1.607E-03  nbox= 20
     iter. #   161  RMS(g-h-1)= 1.478E-03  nbox= 20
     iter. #   171  RMS(g-h-1)= 1.331E-03  nbox=  9
     iter. #   181  RMS(g-h-1)= 1.089E-03  nbox=  3
     iter. #   191  RMS(g-h-1)= 9.118E-04  nbox= 13
     iter. #   201  RMS(g-h-1)= 8.047E-04  nbox=  7
     iter. #   211  RMS(g-h-1)= 7.470E-04  nbox= 17
     iter. #   221  RMS(g-h-1)= 6.750E-04  nbox= 11
     iter. #   231  RMS(g-h-1)= 6.052E-04  nbox=  5
     iter. #   241  RMS(g-h-1)= 5.079E-04  nbox= 15
     iter. #   251  RMS(g-h-1)= 4.442E-04  nbox=  9
     iter. #   261  RMS(g-h-1)= 3.624E-04  nbox=  3
     iter. #   271  RMS(g-h-1)= 3.148E-04  nbox= 13
     iter. #   281  RMS(g-h-1)= 2.808E-04  nbox=  7
     iter. #   291  RMS(g-h-1)= 2.490E-04  nbox= 17
     iter. #   301  RMS(g-h-1)= 2.305E-04  nbox= 11
     iter. #   311  RMS(g-h-1)= 2.125E-04  nbox=  5
     iter. #   321  RMS(g-h-1)= 1.941E-04  nbox= 15
     iter. #   331  RMS(g-h-1)= 1.838E-04  nbox=  9
     iter. #   341  RMS(g-h-1)= 1.762E-04  nbox=  3
     iter. #   351  RMS(g-h-1)= 1.698E-04  nbox= 13
     iter. #   361  RMS(g-h-1)= 1.674E-04  nbox=  7
     iter. #   371  RMS(g-h-1)= 1.585E-04  nbox= 17
     iter. #   381  RMS(g-h-1)= 1.547E-04  nbox= 11
     iter. #   391  RMS(g-h-1)= 1.480E-04  nbox=  5
     iter. #   401  RMS(g-h-1)= 1.399E-04  nbox= 15
     iter. #   411  RMS(g-h-1)= 1.312E-04  nbox=  9
     iter. #   421  RMS(g-h-1)= 1.230E-04  nbox=  3
     iter. #   431  RMS(g-h-1)= 1.119E-04  nbox= 13
     iter. #   441  RMS(g-h-1)= 1.059E-04  nbox=  7
     iter. #   451  RMS(g-h-1)= 1.009E-04  nbox= 17
     iter. #   461  RMS(g-h-1)= 9.789E-05  nbox= 11
     iter. #   471  RMS(g-h-1)= 9.604E-05  nbox=  5
     iter. #   481  RMS(g-h-1)= 9.413E-05  nbox= 15
     iter. #   491  RMS(g-h-1)= 9.230E-05  nbox=  9
     iter. #   501  RMS(g-h-1)= 8.943E-05  nbox=  3
     iter. #   511  RMS(g-h-1)= 8.586E-05  nbox= 13
     iter. #   521  RMS(g-h-1)= 8.091E-05  nbox=  7
     iter. #   531  RMS(g-h-1)= 7.483E-05  nbox= 17
     iter. #   541  RMS(g-h-1)= 6.999E-05  nbox= 11
     iter. #   551  RMS(g-h-1)= 6.654E-05  nbox=  5
     iter. #   561  RMS(g-h-1)= 6.212E-05  nbox= 15
     iter. #   571  RMS(g-h-1)= 5.876E-05  nbox=  9
     iter. #   581  RMS(g-h-1)= 5.442E-05  nbox=  3
     iter. #   591  RMS(g-h-1)= 5.003E-05  nbox= 13
[...]
     iter. #   621  RMS(g-h-1)= 4.045E-05  nbox= 11
     iter. #   631  RMS(g-h-1)= 3.807E-05  nbox=  5
     iter. #   641  RMS(g-h-1)= 3.621E-05  nbox= 15
     iter. #   651  RMS(g-h-1)= 3.376E-05  nbox=  9
     iter. #   661  RMS(g-h-1)= 3.143E-05  nbox=  3
     iter. #   671  RMS(g-h-1)= 2.924E-05  nbox= 13
     iter. #   681  RMS(g-h-1)= 2.710E-05  nbox=  7
     iter. #   691  RMS(g-h-1)= 2.573E-05  nbox= 17
     iter. #   701  RMS(g-h-1)= 2.432E-05  nbox= 11
     iter. #   711  RMS(g-h-1)= 2.323E-05  nbox=  5
     iter. #   721  RMS(g-h-1)= 2.195E-05  nbox= 15
     iter. #   731  RMS(g-h-1)= 2.081E-05  nbox=  9
     iter. #   741  RMS(g-h-1)= 1.947E-05  nbox=  3
     iter. #   751  RMS(g-h-1)= 1.737E-05  nbox= 13
     iter. #   758  RMS(g-h-1)= 1.584E-05  nbox=  4

     End of Laue-RISM calculation

[...]

     solvent charge    0.09835, renormalised to    0.10000

     Total number of solvent (in expand-cell)
     H2O           32.564271
     K+             0.725892
     OH-            0.625844

     Total charge of solvent (in expand-cell)
     H2O            0.000052 e
     K+             0.725892 e
     OH-           -0.627593 e
     Total          0.098351 e

     Chemical potential of solvation (in expand-cell)
     H2O        GaussFluct   0.520497E+01 kcal/mol
     K+         GaussFluct   0.145455E+03 kcal/mol
     OH-        GaussFluct  -0.143436E+03 kcal/mol
     Total      GaussFluct   0.722351E+01 kcal/mol

     Starting wfcs are  156 randomized atomic wfcs

     Self-consistent Calculation

     iteration #  1     ecut=    40.00 Ry     beta= 0.10
     Davidson diagonalization with overlap
     ethr =  1.00E-02,  avg # of iterations =  6.6

[...]

     total energy              =   -4839.84231049 Ry
     estimated scf accuracy    <      93.89679688 Ry

     iteration #  2     ecut=    40.00 Ry     beta= 0.10
     Davidson diagonalization with overlap
     ethr =  1.00E-02,  avg # of iterations =  2.0

[...]

     iteration #  3     ecut=    40.00 Ry     beta= 0.10
     RMM-DIIS diagonalization
     ethr =  1.00E-02,  avg # of iterations =  2.5

[...]

     iteration #  5     ecut=    40.00 Ry     beta= 0.10
     Davidson diagonalization with overlap
     c_bands:  3 eigenvalues not converged
     c_bands:  4 eigenvalues not converged
     c_bands:  5 eigenvalues not converged
     c_bands:  4 eigenvalues not converged
     c_bands:  4 eigenvalues not converged
     c_bands:  4 eigenvalues not converged
     c_bands:  4 eigenvalues not converged
     c_bands:  5 eigenvalues not converged
     ethr =  2.03E-04,  avg # of iterations = 22.5

[...]

     iteration # 15     ecut=    40.00 Ry     beta= 0.10
     Davidson diagonalization with overlap
     c_bands:  2 eigenvalues not converged
     c_bands:  3 eigenvalues not converged
     c_bands:  2 eigenvalues not converged
     c_bands:  1 eigenvalues not converged
     ethr =  9.06E-08,  avg # of iterations = 11.0

[...]

     total energy              =   -4845.11662148 Ry
     estimated scf accuracy    <       0.00001353 Ry

     iteration # 18     ecut=    40.00 Ry     beta= 0.10
     RMM-DIIS diagonalization
     ethr =  5.93E-09,  avg # of iterations =  2.8

[...]

     Laue-RISM Calculation

     convergence threshold    = 1.000E-06
     iter. #     1  RMS(g-h-1)= 8.584E-05  nbox=  0
     iter. #    11  RMS(g-h-1)= 2.385E-05  nbox= 10
     iter. #    21  RMS(g-h-1)= 1.167E-05  nbox= 20
     iter. #    31  RMS(g-h-1)= 8.946E-06  nbox= 20
     iter. #    41  RMS(g-h-1)= 7.686E-06  nbox=  4
     iter. #    51  RMS(g-h-1)= 6.663E-06  nbox= 14
     iter. #    61  RMS(g-h-1)= 4.230E-06  nbox= 20
     iter. #    71  RMS(g-h-1)= 3.385E-06  nbox= 20
     iter. #    81  RMS(g-h-1)= 2.990E-06  nbox=  3
     iter. #    91  RMS(g-h-1)= 2.676E-06  nbox= 13
     iter. #   101  RMS(g-h-1)= 2.337E-06  nbox=  7
     iter. #   111  RMS(g-h-1)= 1.957E-06  nbox= 17
     iter. #   121  RMS(g-h-1)= 1.653E-06  nbox= 11
     iter. #   131  RMS(g-h-1)= 1.511E-06  nbox=  5
     iter. #   141  RMS(g-h-1)= 1.404E-06  nbox= 15
     iter. #   151  RMS(g-h-1)= 1.317E-06  nbox=  9
     iter. #   161  RMS(g-h-1)= 1.293E-06  nbox=  3
     iter. #   171  RMS(g-h-1)= 1.222E-06  nbox= 13
     iter. #   181  RMS(g-h-1)= 1.187E-06  nbox=  7
     iter. #   191  RMS(g-h-1)= 1.166E-06  nbox= 17
     iter. #   201  RMS(g-h-1)= 1.123E-06  nbox= 11
     iter. #   211  RMS(g-h-1)= 1.104E-06  nbox=  5
     iter. #   221  RMS(g-h-1)= 1.060E-06  nbox= 15
     iter. #   226  RMS(g-h-1)= 9.900E-07  nbox=  4

     End of Laue-RISM calculation

[...]

     solvent charge    0.09999, renormalised to    0.10000

     Total number of solvent (in expand-cell)
     H2O           32.548988
     K+             0.742275
     OH-            0.642248

     Total charge of solvent (in expand-cell)
     H2O            0.000004 e
     K+             0.742275 e
     OH-           -0.642289 e
     Total          0.099989 e

     Chemical potential of solvation (in expand-cell)
     H2O        GaussFluct   0.545693E+01 kcal/mol
     K+         GaussFluct   0.122579E+03 kcal/mol
     OH-        GaussFluct  -0.122478E+03 kcal/mol
     Total      GaussFluct   0.555860E+01 kcal/mol

     End of self-consistent calculation

          k = 0.1250 0.0722 0.0000 ( 19861 PWs)   bands (ev):

  -117.0010-116.9934-116.9931-116.9930-116.7298-116.7225-116.7222-116.7219
  -116.7219-116.7150-116.7147-116.7146 -74.4317 -74.4317 -74.4250 -74.3959
   -74.3859 -74.3856 -74.3856 -74.3774 -74.3743 -74.3742 -74.3597 -74.3549
   -74.1794 -74.1794 -74.1729 -74.1729 -74.1674 -74.1612 -74.1277 -74.1214
   -74.1193 -74.1193 -74.1132 -74.1131 -74.1103 -74.1039 -74.0990 -74.0930
   -74.0857 -74.0784 -74.0781 -74.0781 -74.0772 -74.0707 -74.0704 -74.0704
   -12.9067 -10.9706  -9.4871  -9.2289  -9.0887  -9.0887  -8.9048  -8.8616
    -8.8616  -8.5340  -8.4937  -8.4937  -8.3978  -8.3978  -8.3977  -7.8224
    -7.8224  -7.8118  -7.4672  -7.4642  -7.4584  -7.4584  -7.4228  -7.3581
    -7.3413  -7.2373  -7.2373  -7.1644  -7.1539  -7.1392  -7.0697  -7.0231
    -7.0065  -6.9867  -6.9867  -6.6146  -6.6146  -6.5889  -6.5821  -6.5740
    -6.5062  -6.5050  -6.5050  -6.4535  -6.2689  -6.2082  -6.1799  -6.1799
    -6.1525  -6.1234  -6.1086  -6.1086  -6.0859  -6.0859  -6.0652  -6.0582
    -5.9540  -5.9539  -5.8747  -5.8747  -5.8580  -5.8455  -5.7837  -5.2465
    -4.5046  -4.5046  -4.3646  -4.1879  -3.4786  -3.4786  -2.4888  -2.4888
    -2.2576  -0.5861  -0.1196  -0.0833   0.0390   0.0390   0.0940   0.5213
     0.7884   0.8304   0.8304   1.0234   1.7851   2.0486   2.1626   2.1628
     2.1744

[...]

          k = 0.3750-0.3608 0.0000 ( 19917 PWs)   bands (ev):

  -116.9978-116.9963-116.9940-116.9924-116.7266-116.7251-116.7229-116.7213
  -116.7194-116.7178-116.7156-116.7140 -74.4155 -74.4136 -74.4024 -74.3979
   -74.3917 -74.3901 -74.3896 -74.3867 -74.3846 -74.3815 -74.3671 -74.3612
   -74.1599 -74.1598 -74.1536 -74.1536 -74.1503 -74.1460 -74.1439 -74.1398
   -74.1396 -74.1332 -74.1282 -74.1220 -74.1127 -74.1066 -74.1056 -74.0995
   -74.0824 -74.0809 -74.0789 -74.0775 -74.0746 -74.0732 -74.0713 -74.0698
   -11.5146 -10.7023  -9.7548  -9.4024  -9.2340  -8.6911  -8.6156  -8.5245
    -8.4468  -8.4077  -8.2213  -8.2112  -8.0460  -8.0104  -7.9793  -7.8582
    -7.8303  -7.8160  -7.7458  -7.7403  -7.6356  -7.6232  -7.4576  -7.4517
    -7.3473  -7.3201  -7.2547  -7.2343  -7.2195  -7.2089  -7.2031  -7.1673
    -7.1535  -7.0887  -7.0628  -7.0203  -7.0192  -7.0013  -6.9492  -6.9308
    -6.8781  -6.7152  -6.7140  -6.6609  -6.5969  -6.5906  -6.5713  -6.5334
    -6.5126  -6.4661  -6.3781  -6.3519  -6.3459  -6.2715  -6.2699  -6.2194
    -6.1763  -6.1098  -6.0769  -6.0684  -6.0631  -6.0058  -6.0022  -5.9531
    -5.3325  -4.5722  -4.5243  -3.8433  -3.3524  -2.2133  -2.1862  -2.0242
    -1.0859  -0.2252   0.7155   0.8939   0.9251   1.2855   1.3177   1.5711
     1.9425   1.9488   2.1319   2.2127   2.2401   2.2627   2.8979   2.9245
     3.0315

     the Fermi energy is    -4.5336 ev

!    total energy              =   -4845.11664881 Ry
     estimated scf accuracy    <       0.00000081 Ry
     smearing contrib. (-TS)   =      -0.00823510 Ry
     internal energy E=F+TS    =   -4845.10841372 Ry

     The total energy is F=E-TS. E is the sum of the following terms:
     one-electron contribution =   26953.80418505 Ry
     hartree contribution      =  -13523.68368199 Ry
     xc contribution           =    -465.29599607 Ry
     ewald contribution        =  -17809.95104590 Ry
     solvation energy (RISM)   =       0.01772823 Ry
     level-shifting contrib.   =       0.00039696 Ry

     convergence has been achieved in  18 iterations

     negative rho (up, down):  1.566E-03 0.000E+00

     Forces acting on atoms (cartesian axes, Ry/au):

     atom    1 type  1   force =     0.00023708    0.00004589    0.00520627
     atom    2 type  1   force =    -0.00016356   -0.00007835   -0.00245994
     atom    3 type  1   force =    -0.00018780   -0.00015838   -0.00500047
     atom    4 type  1   force =     0.00032803    0.00002545    0.00525792
     atom    5 type  1   force =    -0.00000666    0.00024205   -0.00239421
     atom    6 type  1   force =    -0.00027015   -0.00008264   -0.00487518
     atom    7 type  1   force =     0.00014817    0.00025261    0.00524116
     atom    8 type  1   force =     0.00019510   -0.00012498   -0.00237776
     atom    9 type  1   force =    -0.00021793   -0.00019176   -0.00492214
     atom   10 type  1   force =     0.00002970    0.00007734    0.00517294
     atom   11 type  1   force =     0.00007142    0.00004588   -0.00239588
     atom   12 type  1   force =    -0.00016340   -0.00005311   -0.00492084

     Total force =     0.009873     Total SCF correction =     0.004373
     SCF correction compared to forces is large: reduce conv_thr to get better values

     Writing all to output data dir ./output/opt.save/ :
     XML data file, charge density, RISM restart, pseudopotentials, RISM molfiles, collected wavefunctions

     General routines

     Parallel routines

     RISM routines

   This run was terminated on:  11:33:18   9Jun2024

   JOB DONE.