     Program PWSCF v.7.3.1 starts on  9Jun2024 at 15:53: 1

     Reading input from scf.in

     Current dimensions of program PWSCF are:
     Max number of different atomic species (ntypx) = 10
     Max number of k-points (npk) =  40000
     Max angular momentum in pseudopotentials (lmaxx) =  4
     Message from routine iosys_1drism:
     default density from MOL file(H2O.tip5p.Nishihara.MOL) is used
     Found identity + ( -0.0000 -0.5000  0.0000) symmetry
     This is a supercell, fractional translations are disabled

     R & G space division:  proc/nbgrp/npool/nimage =      32
     Subspace diagonalization in iterative solution of the eigenvalue problem:
     a serial algorithm will be used

     Molecule # 1 for H2O read from file:
     ../../../pseudo/H2O.tip5p.Nishihara.MOL
     Density:
         0.23069113E+02 cell^-1
         0.49533751E-02 bohr^-3
         0.55506881E+02 mol/L
         0.99997200E+00 g/cm^3
     Permittivity:
        78.500000
     Number of atoms:   5
     Atoms:
       #  atom      X (angs)      Y (angs)      Z (angs)      Q (e)         E (kcal/mol)  S (angs)
       1  O/h2o     0.00000000   -0.06556000    0.00000000    0.00000000    0.16000000    3.12000000
       2  H/h2o     0.75695000    0.52032000    0.00000000    0.24100000    0.04600000    1.00000000
       3  H/h2o    -0.75695000    0.52032000    0.00000000    0.24100000    0.04600000    1.00000000
       4  L/h2o     0.00000000   -0.46971000    0.57154000   -0.24100000    0.04600000    1.80000000
       5  L/h2o     0.00000000   -0.46971000   -0.57154000   -0.24100000    0.04600000    1.80000000

     Molecule # 2 for K+ read from file:
     ../../../pseudo/K+.Hagiwara.MOL
     Density:
         0.41560816E+00 cell^-1
         0.89238937E-04 bohr^-3
         0.10000000E+01 mol/L
         0.39098300E-01 g/cm^3
     Number of atoms:   1
     Atoms:
       #  atom      X (angs)      Y (angs)      Z (angs)      Q (e)         E (kcal/mol)  S (angs)
       1  K         0.00000000    0.00000000    0.00000000    1.00000000    0.00032800    4.93462800

     Molecule # 3 for OH- read from file:
     ../../../pseudo/OH-.oplsaa.MOL
     Density:
         0.41560816E+00 cell^-1
         0.89238937E-04 bohr^-3
         0.10000000E+01 mol/L
         0.17007340E-01 g/cm^3
     Number of atoms:   2
     Atoms:
       #  atom      X (angs)      Y (angs)      Z (angs)      Q (e)         E (kcal/mol)  S (angs)
       1  O/oh      0.00000000    0.00000000    0.00000000   -1.30000000    0.25000000    3.20000000
       2  H/oh      0.95300000    0.00000000    0.00000000    0.30000000    0.04600000    1.00000000

     1D-RISM info
     closure equation        =           KH
     temperature             =     300.0000  kelvin
     coulomb smearing radius =       2.0000  bohr
     number of solvent sites =            8
     number of grids         =         5973
     maximum of R-space      =     999.8326  bohr
     maximum of G-space      =      18.7632  bohr^-1
     number of iterations    =        15000
     convergence threshold   =      1.0E-08
     Gaussian width of bonds =       0.3162  bohr
     size of MDIIS           =           20
     step of MDIIS           =       0.2000
     number of processes     =           32

     Correlation function is read from file

     1D-RISM Calculation

     iter. #     1  RMS(g-h-1)= 9.990E-09  nbox=  0  T=  300.00K

     End of 1D-RISM calculation

     convergence has been achieved in     1 iterations

     Chemical potential of solvation

     H2O        H2O        Closure      0.144018E+01 kcal/mol
                           GaussFluct  -0.702227E+01 kcal/mol

                K+         Closure     -0.280526E+00 kcal/mol
                           GaussFluct  -0.350066E+00 kcal/mol

                OH-        Closure     -0.749876E+00 kcal/mol
                           GaussFluct  -0.841417E+00 kcal/mol

                Total      Closure      0.409778E+00 kcal/mol
                           GaussFluct  -0.821376E+01 kcal/mol

     K+         H2O        Closure     -0.155711E+02 kcal/mol
                           GaussFluct  -0.194311E+02 kcal/mol

[...]

     OH-        H2O        Closure     -0.416233E+02 kcal/mol
                           GaussFluct  -0.467044E+02 kcal/mol

                K+         Closure     -0.351595E+06 kcal/mol
                           GaussFluct  -0.351595E+06 kcal/mol

                OH-        Closure      0.351544E+06 kcal/mol
                           GaussFluct   0.351544E+06 kcal/mol

                Total      Closure     -0.925525E+02 kcal/mol
                           GaussFluct  -0.977562E+02 kcal/mol

     Using Slab Decomposition

     bravais-lattice index     =            0
     lattice parameter (alat)  =       9.7396  a.u.
     unit-cell volume          =    4657.2513 (a.u.)^3
     number of atoms/cell      =           12
     number of atomic types    =            1
     number of electrons       =       228.10
     number of Kohn-Sham states=          137
     kinetic-energy cutoff     =      40.0000  Ry
     charge density cutoff     =     320.0000  Ry
     scf convergence threshold =      1.0E-06
     mixing beta               =       0.1000
     number of iterations used =            8  plain     mixing
     Exchange-correlation= SLA  PW   PBE  PBE
                           (   1   4   3   4   0   0   0)

     Effective Screening Medium Method
     Boundary Conditions: Vacuum-Slab-Vacuum
     total charge in unit cell        =  -0.1000
     grid points for fit at edges     =        4

     celldm(1)=   9.739563  celldm(2)=   0.000000  celldm(3)=   0.000000
     celldm(4)=   0.000000  celldm(5)=   0.000000  celldm(6)=   0.000000

     crystal axes: (cart. coord. in units of alat)
               a(1) = (   1.000000   0.000000   0.000000 )
               a(2) = (   0.500000   0.866025   0.000000 )
               a(3) = (   0.000000   0.000000   5.820773 )

     reciprocal axes: (cart. coord. in units 2 pi/alat)
               b(1) = (  1.000000 -0.577350  0.000000 )
               b(2) = (  0.000000  1.154701  0.000000 )
               b(3) = (  0.000000  0.000000  0.171798 )

     PseudoPot. # 1 for Cu read from file:
     ../../../pseudo/cu_pbe_v1.2.uspp.F.UPF
     MD5 check sum: 6e991ff952a84172a2a52a1c1e996048
     Pseudo is Ultrasoft + core correction, Zval = 19.0
     Generated by new atomic code, or converted to UPF format
     Using radial grid of  867 points,  6 beta functions with:
                l(1) =   0
                l(2) =   0
                l(3) =   1
                l(4) =   1
                l(5) =   2
                l(6) =   2
     Q(r) pseudized with  8 coefficients,  rinner =    1.150   1.150   1.150
                                                       1.150   1.150

     atomic species   valence    mass     pseudopotential
     Cu               19.00    63.54600     Cu( 1.00)

     No symmetry found

   Cartesian axes

     site n.     atom                  positions (alat units)
         1        Cu     tau(   1) = (   0.0000000   0.0000000  -0.4043952  )
         2        Cu     tau(   2) = (   0.5000000   0.2886751   0.0038531  )
         3        Cu     tau(   3) = (   0.2500000   0.1443376   0.4121014  )
         4        Cu     tau(   4) = (   0.2500000   0.4330127  -0.4043952  )
         5        Cu     tau(   5) = (   0.7500000   0.7216878   0.0038531  )
         6        Cu     tau(   6) = (   0.5000000   0.5773503   0.4121014  )
         7        Cu     tau(   7) = (   0.5000000   0.0000000  -0.4043952  )
         8        Cu     tau(   8) = (   1.0000000   0.2886751   0.0038531  )
         9        Cu     tau(   9) = (   0.7500000   0.1443376   0.4121014  )
        10        Cu     tau(  10) = (   0.7500000   0.4330127  -0.4043952  )
        11        Cu     tau(  11) = (   1.2500000   0.7216878   0.0038531  )
        12        Cu     tau(  12) = (   1.0000000   0.5773503   0.4121014  )

     number of k points=     8  Gaussian smearing, width (Ry)=  0.0100
                       cart. coord. in units 2pi/alat
        k(    1) = (   0.1250000   0.0721688   0.0000000), wk =   0.2500000
        k(    2) = (   0.1250000   0.3608439   0.0000000), wk =   0.2500000
        k(    3) = (   0.1250000  -0.5051815   0.0000000), wk =   0.2500000
        k(    4) = (   0.1250000  -0.2165064   0.0000000), wk =   0.2500000
        k(    5) = (   0.3750000  -0.0721688   0.0000000), wk =   0.2500000
        k(    6) = (   0.3750000   0.2165064   0.0000000), wk =   0.2500000
        k(    7) = (   0.3750000  -0.6495191   0.0000000), wk =   0.2500000
        k(    8) = (   0.3750000  -0.3608439   0.0000000), wk =   0.2500000

     Solute:
       # atom     E (kcal/mol)  S (angs)
       1  Cu      0.00500000    3.11369102    given
       2  Cu      0.00500000    3.11369102    given
       3  Cu      0.00500000    3.11369102    given
       4  Cu      0.00500000    3.11369102    given
       5  Cu      0.00500000    3.11369102    given
       6  Cu      0.00500000    3.11369102    given
       7  Cu      0.00500000    3.11369102    given
       8  Cu      0.00500000    3.11369102    given
       9  Cu      0.00500000    3.11369102    given
      10  Cu      0.00500000    3.11369102    given
      11  Cu      0.00500000    3.11369102    given
      12  Cu      0.00500000    3.11369102    given

     Wall:
       Density =    0.01000000  bohr^-3
       E       =    0.10000000  kcal/mol
       S       =    4.00000000  angs

     Laue-RISM info
     closure equation        =           KH
     temperature             =     300.0000  kelvin
     coulomb smearing radius =       2.0000  bohr
     number of solvent sites =            6
     solvent sites           =    O/h2o   H/h2o   L/h2o       K
     solvent sites           =     O/oh    H/oh
     number of iterations    =        15000
     convergence threshold   =      1.0E-06
     convergence level       =       0.7000
     size of MDIIS           =           20
     step of MDIIS           =       0.1000
     solvent cutoff          =     160.0000  Ry
     Custom grid:   159127 G-vectors     FFT dimensions: (  40,  40, 240)

     Boundary Conditions        : Vacuum-Slab-Solvent
     unit-cell (in bohr)        : [ -28.345892  28.345892]
     expand-cell (in bohr)      : [ -28.345892  89.761991]
     solvent of right (in bohr) : [   0.000000  89.761991]
     buffer  of right (in bohr) : [  -4.015668   0.000000]
     repulsive wall (in bohr)   : [  -Infinity  -2.286274]
     reference of potential     : right-hand side
     #grids to fit at edges of unit-cell =    4
     Laue grid:     1039 Gxy-vectors     FFT dimensions: (  40,  40, 500)

     The initial density is read from file :
     ./output/opt.save/charge-density

     Correlation function is read from file

     negative rho (up, down):  1.566E-03 0.000E+00

     Laue-RISM Calculation

     convergence threshold    = 1.585E-05
     iter. #     1  RMS(g-h-1)= 9.900E-07  nbox=  0

     End of Laue-RISM calculation

[...]

     solvent charge    0.09999, renormalised to    0.10000

     Total number of solvent (in expand-cell)
     H2O           32.548988
     K+             0.742275
     OH-            0.642248

     Total charge of solvent (in expand-cell)
     H2O            0.000004 e
     K+             0.742275 e
     OH-           -0.642289 e
     Total          0.099989 e

     Chemical potential of solvation (in expand-cell)
     H2O        GaussFluct   0.545693E+01 kcal/mol
     K+         GaussFluct   0.122579E+03 kcal/mol
     OH-        GaussFluct  -0.122478E+03 kcal/mol
     Total      GaussFluct   0.555860E+01 kcal/mol

     Starting wfcs are  156 randomized atomic wfcs

     Self-consistent Calculation

     iteration #  1     ecut=    40.00 Ry     beta= 0.10
     Davidson diagonalization with overlap
     c_bands:  3 eigenvalues not converged
     c_bands:  4 eigenvalues not converged
     c_bands:  5 eigenvalues not converged
     c_bands:  2 eigenvalues not converged
     c_bands:  4 eigenvalues not converged
     c_bands:  3 eigenvalues not converged
     c_bands:  5 eigenvalues not converged
     c_bands:  2 eigenvalues not converged
     ethr =  1.00E-05,  avg # of iterations = 92.5

     Threshold (ethr) on eigenvalues was too large:
     Diagonalizing with lowered threshold

     Davidson diagonalization with overlap
     c_bands:  2 eigenvalues not converged
     c_bands:  2 eigenvalues not converged
     c_bands:  2 eigenvalues not converged
     c_bands:  2 eigenvalues not converged
     ethr =  2.24E-08,  avg # of iterations = 16.8

[...]

     total energy              =   -4845.11653893 Ry
     estimated scf accuracy    <       0.00005293 Ry

     iteration #  2     ecut=    40.00 Ry     beta= 0.10
     Davidson diagonalization with overlap
     c_bands:  2 eigenvalues not converged
     c_bands:  2 eigenvalues not converged
     ethr =  2.32E-08,  avg # of iterations =  8.4

[...]

     total energy              =   -4845.11664988 Ry
     estimated scf accuracy    <       0.00015007 Ry

     iteration #  3     ecut=    40.00 Ry     beta= 0.10
     RMM-DIIS diagonalization
     ethr =  2.32E-08,  avg # of iterations =  3.0

[...]

     Laue-RISM Calculation

     convergence threshold    = 1.000E-06
     iter. #     1  RMS(g-h-1)= 1.068E-04  nbox=  0
     iter. #    11  RMS(g-h-1)= 2.639E-05  nbox= 10
     iter. #    21  RMS(g-h-1)= 1.197E-05  nbox= 20
     iter. #    31  RMS(g-h-1)= 9.688E-06  nbox= 20
     iter. #    41  RMS(g-h-1)= 8.867E-06  nbox=  4
     iter. #    51  RMS(g-h-1)= 6.899E-06  nbox=  9
     iter. #    61  RMS(g-h-1)= 4.290E-06  nbox= 19
     iter. #    71  RMS(g-h-1)= 3.566E-06  nbox= 20
     iter. #    81  RMS(g-h-1)= 2.864E-06  nbox= 20
     iter. #    91  RMS(g-h-1)= 2.547E-06  nbox= 20
     iter. #   101  RMS(g-h-1)= 2.361E-06  nbox=  7
     iter. #   111  RMS(g-h-1)= 2.107E-06  nbox= 17
     iter. #   121  RMS(g-h-1)= 1.888E-06  nbox= 11
     iter. #   131  RMS(g-h-1)= 1.754E-06  nbox=  5
     iter. #   141  RMS(g-h-1)= 1.547E-06  nbox= 15
     iter. #   151  RMS(g-h-1)= 1.415E-06  nbox=  9
     iter. #   161  RMS(g-h-1)= 1.322E-06  nbox=  3
     iter. #   171  RMS(g-h-1)= 1.256E-06  nbox= 13
     iter. #   181  RMS(g-h-1)= 1.213E-06  nbox=  7
     iter. #   191  RMS(g-h-1)= 1.152E-06  nbox= 17
     iter. #   201  RMS(g-h-1)= 1.054E-06  nbox= 11
     iter. #   205  RMS(g-h-1)= 9.948E-07  nbox= 15

     End of Laue-RISM calculation

[...]

     solvent charge    0.10012, renormalised to    0.10000

     Total number of solvent (in expand-cell)
     H2O           32.548906
     K+             0.742359
     OH-            0.642298

     Total charge of solvent (in expand-cell)
     H2O            0.000019 e
     K+             0.742359 e
     OH-           -0.642258 e
     Total          0.100120 e

     Chemical potential of solvation (in expand-cell)
     H2O        GaussFluct   0.545619E+01 kcal/mol
     K+         GaussFluct   0.122654E+03 kcal/mol
     OH-        GaussFluct  -0.122548E+03 kcal/mol
     Total      GaussFluct   0.556243E+01 kcal/mol

     End of self-consistent calculation

          k = 0.1250 0.0722 0.0000 ( 19861 PWs)   bands (ev):

  -116.9977-116.9900-116.9897-116.9897-116.7258-116.7188-116.7182-116.7179
  -116.7179-116.7112-116.7109-116.7109 -74.4284 -74.4284 -74.4217 -74.3927
   -74.3827 -74.3824 -74.3824 -74.3741 -74.3709 -74.3709 -74.3564 -74.3516
   -74.1752 -74.1752 -74.1692 -74.1692 -74.1632 -74.1574 -74.1235 -74.1176
   -74.1151 -74.1151 -74.1094 -74.1094 -74.1061 -74.1002 -74.0949 -74.0893
   -74.0820 -74.0747 -74.0744 -74.0744 -74.0735 -74.0669 -74.0667 -74.0666
   -12.9043 -10.9676  -9.4843  -9.2261  -9.0859  -9.0859  -8.9017  -8.8585
    -8.8585  -8.5308  -8.4905  -8.4905  -8.3943  -8.3943  -8.3942  -7.8190
    -7.8190  -7.8084  -7.4642  -7.4609  -7.4551  -7.4551  -7.4198  -7.3549
    -7.3383  -7.2341  -7.2341  -7.1612  -7.1503  -7.1356  -7.0660  -7.0199
    -7.0026  -6.9835  -6.9835  -6.6113  -6.6113  -6.5858  -6.5788  -6.5706
    -6.5025  -6.5015  -6.5014  -6.4502  -6.2652  -6.2049  -6.1766  -6.1766
    -6.1492  -6.1201  -6.1052  -6.1052  -6.0825  -6.0825  -6.0619  -6.0547
    -5.9503  -5.9503  -5.8710  -5.8710  -5.8541  -5.8418  -5.7810  -5.2436
    -4.5017  -4.5017  -4.3626  -4.1850  -3.4758  -3.4758  -2.4861  -2.4861
    -2.2551  -0.5721  -0.0903  -0.0400   0.0419   0.0419   0.0967   0.5579
     0.8272   0.8331   0.8331   1.0262   1.8224   2.0798   2.1650   2.1650
     2.1767

[...]

          k = 0.3750-0.3608 0.0000 ( 19917 PWs)   bands (ev):

  -116.9945-116.9929-116.9906-116.9891-116.7226-116.7210-116.7188-116.7173
  -116.7156-116.7140-116.7118-116.7103 -74.4122 -74.4103 -74.3991 -74.3946
   -74.3885 -74.3868 -74.3864 -74.3835 -74.3814 -74.3782 -74.3638 -74.3579
   -74.1557 -74.1556 -74.1499 -74.1498 -74.1461 -74.1419 -74.1402 -74.1361
   -74.1354 -74.1295 -74.1240 -74.1183 -74.1085 -74.1029 -74.1015 -74.0958
   -74.0788 -74.0773 -74.0752 -74.0738 -74.0709 -74.0695 -74.0675 -74.0661
   -11.5121 -10.6998  -9.7519  -9.3998  -9.2311  -8.6881  -8.6127  -8.5215
    -8.4438  -8.4047  -8.2183  -8.2083  -8.0428  -8.0073  -7.9759  -7.8551
    -7.8273  -7.8131  -7.7422  -7.7371  -7.6320  -7.6200  -7.4543  -7.4484
    -7.3439  -7.3164  -7.2512  -7.2308  -7.2161  -7.2054  -7.1997  -7.1638
    -7.1501  -7.0852  -7.0592  -7.0170  -7.0156  -6.9978  -6.9459  -6.9276
    -6.8748  -6.7120  -6.7107  -6.6574  -6.5934  -6.5873  -6.5679  -6.5296
    -6.5092  -6.4625  -6.3745  -6.3486  -6.3424  -6.2682  -6.2661  -6.2158
    -6.1730  -6.1064  -6.0734  -6.0650  -6.0596  -6.0025  -5.9989  -5.9500
    -5.3292  -4.5690  -4.5217  -3.8408  -3.3494  -2.2108  -2.1841  -2.0212
    -1.0838  -0.2227   0.7255   0.8960   0.9276   1.3168   1.3616   1.5791
     1.9452   1.9847   2.1711   2.2429   2.2470   2.3043   2.9260   2.9297
     3.0722

     the Fermi energy is    -4.5307 ev

!    total energy              =   -4845.11668379 Ry
     estimated scf accuracy    <       0.00000085 Ry
     smearing contrib. (-TS)   =      -0.00824093 Ry
     internal energy E=F+TS    =   -4845.10844286 Ry

     The total energy is F=E-TS. E is the sum of the following terms:
     one-electron contribution =   26953.96460914 Ry
     hartree contribution      =  -13523.85216296 Ry
     xc contribution           =    -465.28796712 Ry
     ewald contribution        =  -17809.95104590 Ry
     solvation energy (RISM)   =       0.01774047 Ry
     level-shifting contrib.   =       0.00038352 Ry

     convergence has been achieved in   3 iterations

     negative rho (up, down):  1.566E-03 0.000E+00

     Forces acting on atoms (cartesian axes, Ry/au):

     atom    1 type  1   force =     0.00015152    0.00013076    0.00531746
     atom    2 type  1   force =     0.00020366    0.00009970    0.00122011
     atom    3 type  1   force =    -0.00022398   -0.00010186   -0.00760381
     atom    4 type  1   force =     0.00007300    0.00023333    0.00531205
     atom    5 type  1   force =     0.00002955   -0.00022551    0.00115760
     atom    6 type  1   force =    -0.00016540   -0.00016268   -0.00771033
     atom    7 type  1   force =     0.00026687   -0.00003137    0.00530925
     atom    8 type  1   force =    -0.00019099    0.00013828    0.00116110
     atom    9 type  1   force =    -0.00020843   -0.00004163   -0.00771408
     atom   10 type  1   force =     0.00035653    0.00015018    0.00541079
     atom   11 type  1   force =    -0.00002779   -0.00000753    0.00112571
     atom   12 type  1   force =    -0.00026453   -0.00018165   -0.00770610

     Total force =     0.015376     Total SCF correction =     0.004559
     SCF correction compared to forces is large: reduce conv_thr to get better values

     Writing all to output data dir ./output/opt.save/ :
     XML data file, charge density, RISM restart, pseudopotentials, RISM molfiles, collected wavefunctions

     General routines

     Parallel routines

     RISM routines

   This run was terminated on:  15:56:19   9Jun2024

   JOB DONE.