     Program PWSCF v.7.2 starts on  5Jun2024 at  0: 7:27

     Reading input from scf_bc1.in
Warning: card &CELL ignored
Warning: card / ignored

     Current dimensions of program PWSCF are:
     Max number of different atomic species (ntypx) = 10
     Max number of k-points (npk) =  40000
     Max angular momentum in pseudopotentials (lmaxx) =  4

     R & G space division:  proc/nbgrp/npool/nimage =      32
     Subspace diagonalization in iterative solution of the eigenvalue problem:
     a serial algorithm will be used

     Using Slab Decomposition

     bravais-lattice index     =            0
     lattice parameter (alat)  =       9.6476  a.u.
     unit-cell volume          =    4569.7547 (a.u.)^3
     number of atoms/cell      =           14
     number of atomic types    =            3
     number of electrons       =       238.00
     number of Kohn-Sham states=          143
     kinetic-energy cutoff     =      40.0000  Ry
     charge density cutoff     =     320.0000  Ry
     scf convergence threshold =      1.0E-06
     mixing beta               =       0.1000
     number of iterations used =            8  plain     mixing
     Exchange-correlation= SLA  PW   PBE  PBE
                           (   1   4   3   4   0   0   0)

     Effective Screening Medium Method
     Boundary Conditions: Vacuum-Slab-Vacuum
     total charge in unit cell        =   0.0000
     grid points for fit at edges     =        4

     celldm(1)=   9.647639  celldm(2)=   0.000000  celldm(3)=   0.000000
     celldm(4)=   0.000000  celldm(5)=   0.000000  celldm(6)=   0.000000

     crystal axes: (cart. coord. in units of alat)
               a(1) = (   1.000000   0.000000   0.000000 )
               a(2) = (   0.500000   0.866025   0.000000 )
               a(3) = (   0.000000   0.000000   5.876234 )

     reciprocal axes: (cart. coord. in units 2 pi/alat)
               b(1) = (  1.000000 -0.577350  0.000000 )
               b(2) = (  0.000000  1.154701  0.000000 )
               b(3) = (  0.000000  0.000000  0.170177 )

     PseudoPot. # 1 for Cu read from file:
     ../../pseudo/cu_pbe_v1.2.uspp.F.UPF
     MD5 check sum: 6e991ff952a84172a2a52a1c1e996048
     Pseudo is Ultrasoft + core correction, Zval = 19.0
     Generated by new atomic code, or converted to UPF format
     Using radial grid of  867 points,  6 beta functions with:
                l(1) =   0
                l(2) =   0
                l(3) =   1
                l(4) =   1
                l(5) =   2
                l(6) =   2
     Q(r) pseudized with  8 coefficients,  rinner =    1.150   1.150   1.150
                                                       1.150   1.150

     PseudoPot. # 2 for O  read from file:
     ../../pseudo/o_pbe_v1.2.uspp.F.UPF
     MD5 check sum: 734c27235a0248c51dbae37a1fbe46ec
     Pseudo is Ultrasoft + core correction, Zval =  6.0
     Generated by new atomic code, or converted to UPF format
     Using radial grid of  737 points,  5 beta functions with:
                l(1) =   0
                l(2) =   0
                l(3) =   1
                l(4) =   1
                l(5) =   2
     Q(r) pseudized with  8 coefficients,  rinner =    0.900   0.900   0.900
                                                       0.900   0.900

     PseudoPot. # 3 for C  read from file:
     ../../pseudo/c_pbe_v1.2.uspp.F.UPF
     MD5 check sum: d1aef80898a10debaa0f26306b886e00
     Pseudo is Ultrasoft + core correction, Zval =  4.0
     Generated by new atomic code, or converted to UPF format
     Using radial grid of  721 points,  4 beta functions with:
                l(1) =   0
                l(2) =   0
                l(3) =   1
                l(4) =   1
     Q(r) pseudized with  8 coefficients,  rinner =    1.100   1.100   1.100

     atomic species   valence    mass     pseudopotential
        Cu            19.00    63.54600     Cu( 1.00)
        O              6.00    15.99900     O ( 1.00)
        C              4.00    12.01100     C ( 1.00)

     No symmetry found

   Cartesian axes

     site n.     atom                  positions (alat units)
         1           Cu  tau(   1) = (   0.1250000   0.0721688  -0.3917489  )
         2           Cu  tau(   2) = (   0.6303651   0.3620439   0.0093767  )
         3           Cu  tau(   3) = (   0.3908697   0.2225165   0.4072039  )
         4           Cu  tau(   4) = (   0.3750000   0.5051815  -0.3917489  )
         5           Cu  tau(   5) = (   0.8810586   0.7929929   0.0121369  )
         6           Cu  tau(   6) = (   0.6406493   0.6600251   0.4293002  )
         7           Cu  tau(   7) = (   0.6250000   0.0721688  -0.3917489  )
         8           Cu  tau(   8) = (   1.1289367   0.3637558   0.0124115  )
         9           Cu  tau(   9) = (   0.8944855   0.2208325   0.4305396  )
        10           Cu  tau(  10) = (   0.8750000   0.5051815  -0.3917489  )
        11           Cu  tau(  11) = (   1.3806944   0.7954917   0.0246836  )
        12           Cu  tau(  12) = (   1.1455917   0.6584810   0.4319321  )
        13           O   tau(  13) = (   0.8819856   0.5082280   0.9272744  )
        14           C   tau(  14) = (   0.8813532   0.5068991   0.6960150  )

     number of k points=     2  Methfessel-Paxton smearing, width (Ry)=  0.0100
                       cart. coord. in units 2pi/alat
        k(    1) = (   0.2500000   0.1443376   0.0000000), wk =   1.0000000
        k(    2) = (   0.2500000  -0.4330127   0.0000000), wk =   1.0000000

     Initial potential from superposition of free atoms

     starting charge     225.9999, renormalised to     238.0000

     negative rho (up, down):  4.013E-03 0.000E+00
     Starting wfcs are  164 randomized atomic wfcs

     Self-consistent Calculation

     iteration #  1     ecut=    40.00 Ry     beta= 0.10
     Davidson diagonalization with overlap
     ethr =  1.00E-02,  avg # of iterations = 10.0

     negative rho (up, down):  1.668E-03 0.000E+00

     total energy              =   -4809.63295254 Ry
     estimated scf accuracy    <     430.54387993 Ry

     iteration #  2     ecut=    40.00 Ry     beta= 0.10
     Davidson diagonalization with overlap
     c_bands:  3 eigenvalues not converged
     ethr =  1.00E-02,  avg # of iterations = 41.0

[...]

     iteration # 21     ecut=    40.00 Ry     beta= 0.10
     Davidson diagonalization with overlap
     c_bands:  1 eigenvalues not converged
     ethr =  4.19E-08,  avg # of iterations = 13.0

[...]

     total energy              =   -4888.89308689 Ry
     estimated scf accuracy    <       0.00000215 Ry

     iteration # 25     ecut=    40.00 Ry     beta= 0.10
     Davidson diagonalization with overlap
     ethr =  9.05E-10,  avg # of iterations =  9.0

[...]

     End of self-consistent calculation

          k = 0.2500 0.1443 0.0000 ( 19495 PWs)   bands (ev):

  -117.8735-117.8673-117.8291-117.7196-117.6324-117.4782-117.4730-117.4560
  -117.4105-117.3452-117.3403-117.2543 -75.4190 -75.3904 -75.3419 -75.2296
   -75.2220 -75.1713 -75.1581 -75.1566 -75.1468 -75.1314 -75.1220 -75.0617
   -75.0434 -75.0250 -75.0026 -74.9196 -74.9031 -74.8933 -74.8840 -74.8583
   -74.8541 -74.8532 -74.8504 -74.8362 -74.8155 -74.8136 -74.7960 -74.7642
   -74.7417 -74.7318 -74.7236 -74.6950 -74.6906 -74.6865 -74.6348 -74.6264
   -28.3779 -15.5546 -13.2629 -12.3990 -11.9200 -11.8532 -10.9081 -10.3406
    -9.8608  -9.7412  -9.7395  -9.6276  -9.5211  -9.4782  -9.2389  -9.1711
    -9.1521  -9.0491  -9.0400  -8.9817  -8.6324  -8.6089  -8.5331  -8.4393
    -8.3214  -8.2294  -8.2078  -8.1654  -8.1556  -8.1387  -8.0893  -7.9883
    -7.9692  -7.9149  -7.8685  -7.8595  -7.8231  -7.7964  -7.7756  -7.6569
    -7.5963  -7.5727  -7.5029  -7.4622  -7.4057  -7.3601  -7.3147  -7.2621
    -7.2556  -7.2405  -7.1339  -7.0898  -7.0766  -6.9886  -6.9208  -6.8900
    -6.8797  -6.8573  -6.8098  -6.7734  -6.7632  -6.7239  -6.6901  -6.6633
    -6.6480  -6.5958  -6.5592  -6.5411  -6.0585  -5.4289  -5.2444  -4.8882
    -4.4895  -4.2955  -3.8174  -3.1158  -2.6241  -2.2570  -1.6491  -1.0180
    -0.4696  -0.0484  -0.0376   0.0848   0.2270   0.7099   0.8306   0.9649
     1.2145   1.3122   1.8567   2.0551   2.1925   2.6901   3.2064

          k = 0.2500-0.4330 0.0000 ( 19534 PWs)   bands (ev):

  -117.8723-117.8685-117.8291-117.7195-117.6324-117.4764-117.4747-117.4558
  -117.4107-117.3435-117.3420-117.2543 -75.4072 -75.4014 -75.3414 -75.2272
   -75.2237 -75.1632 -75.1585 -75.1535 -75.1466 -75.1407 -75.1154 -75.0612
   -75.0435 -75.0344 -75.0023 -74.9047 -74.8985 -74.8850 -74.8720 -74.8699
   -74.8623 -74.8565 -74.8524 -74.8506 -74.8147 -74.8089 -74.7841 -74.7780
   -74.7411 -74.7344 -74.7264 -74.6934 -74.6922 -74.6865 -74.6364 -74.6264
   -28.3772 -15.4544 -12.6185 -12.1863 -11.9012 -11.8777 -10.7746 -10.7418
   -10.3133  -9.6587  -9.5794  -9.3471  -9.2360  -9.1414  -9.0504  -9.0312
    -8.9501  -8.8559  -8.7847  -8.7541  -8.6492  -8.6051  -8.5866  -8.5024
    -8.4888  -8.4515  -8.3676  -8.3138  -8.2718  -8.2312  -8.1217  -8.1000
    -8.0752  -8.0307  -8.0192  -7.9715  -7.9314  -7.8958  -7.8565  -7.8133
    -7.7426  -7.6915  -7.6845  -7.6644  -7.5565  -7.5140  -7.4689  -7.4390
    -7.4124  -7.3351  -7.3168  -7.2532  -7.2083  -7.1212  -7.1168  -7.0557
    -7.0097  -6.9882  -6.9344  -6.8695  -6.8011  -6.7647  -6.7545  -6.7313
    -6.7081  -6.6727  -6.5830  -6.5202  -6.3780  -6.1445  -5.6793  -4.7107
    -4.2571  -3.6606  -2.8177  -2.6632  -2.1376  -2.0343  -1.5660  -0.9048
     0.0631   0.3779   0.4200   0.8879   1.1377   1.2408   1.4299   1.8028
     1.8861   2.1155   2.1551   2.7122   2.7295   2.9473   3.0005

     the Fermi energy is    -5.0667 ev

!    total energy              =   -4888.89308593 Ry
     estimated scf accuracy    <       0.00000078 Ry
     smearing contrib. (-TS)   =       0.00126866 Ry
     internal energy E=F+TS    =   -4888.89435459 Ry

     The total energy is F=E-TS. E is the sum of the following terms:
     one-electron contribution =   32880.52897043 Ry
     hartree contribution      =  -16478.15982259 Ry
     xc contribution           =    -476.15883539 Ry
     ewald contribution        =  -20815.10466704 Ry

     convergence has been achieved in  25 iterations

     negative rho (up, down):  1.938E-03 0.000E+00

     Forces acting on atoms (cartesian axes, Ry/au):

     atom    1 type  1   force =    -0.00148429   -0.00123130   -0.00125980
     atom    2 type  1   force =     0.00024387    0.00026569    0.00062638
     atom    3 type  1   force =     0.00006530    0.00043942   -0.00168041
     atom    4 type  1   force =    -0.00078194    0.00070420    0.00089427
     atom    5 type  1   force =     0.00037353   -0.00015775    0.00083881
     atom    6 type  1   force =     0.00140716   -0.00038728   -0.00197204
     atom    7 type  1   force =     0.00031074   -0.00125206    0.00074872
     atom    8 type  1   force =    -0.00011057    0.00078899    0.00099857
     atom    9 type  1   force =     0.00029571    0.00145554   -0.00242948
     atom   10 type  1   force =    -0.00001610   -0.00042741    0.00243847
     atom   11 type  1   force =     0.00004054    0.00005676    0.00078513
     atom   12 type  1   force =    -0.00180947   -0.00095592   -0.00176512
     atom   13 type  2   force =     0.00091906    0.00039450   -0.00072890
     atom   14 type  3   force =     0.00054646    0.00030662    0.00061549
     The non-local contrib.  to forces
     atom    1 type  1   force =    -0.01503308   -0.00975053   -0.24602783
     atom    2 type  1   force =    -0.02219937   -0.01317717    0.00789145
     atom    3 type  1   force =     0.09181257    0.05267589    0.29573017
     atom    4 type  1   force =    -0.00973612    0.02486322   -0.27785495
     atom    5 type  1   force =    -0.05252378    0.05589943   -0.03571621
     atom    6 type  1   force =     0.14225982   -0.17345924    0.21837173
     atom    7 type  1   force =     0.01516414   -0.02078728   -0.27796941
     atom    8 type  1   force =     0.02153681   -0.07278548   -0.03429814
     atom    9 type  1   force =    -0.07897856    0.20882470    0.21875362
     atom   10 type  1   force =    -0.00821541   -0.00409681   -0.30922053
     atom   11 type  1   force =     0.03075171    0.01752572   -0.08182487
     atom   12 type  1   force =    -0.18277177   -0.10586867    0.22000265
     atom   13 type  2   force =    -0.00411863   -0.01219762   -2.29181617
     atom   14 type  3   force =     0.02118467    0.01495957    0.48432073
     The ionic contribution  to forces
     atom    1 type  1   force =    -0.64323978   -0.38395821 -477.55260478
     atom    2 type  1   force =     0.71663353    0.41853411  -34.25771210
     atom    3 type  1   force =     1.03071496    0.66023688  407.77625509
     atom    4 type  1   force =    -0.07104273    0.95118992 -477.86171341
     atom    5 type  1   force =    -0.06844534   -0.37995306  -32.15098631
     atom    6 type  1   force =    -4.06914940    1.03349791  421.93028918
     atom    7 type  1   force =     0.80686406   -0.56524434 -477.91509249
     atom    8 type  1   force =    -0.39310111    0.13456917  -31.81617586
     atom    9 type  1   force =    -1.11269641   -4.08249739  423.06746300
     atom   10 type  1   force =     0.18511374    0.06941140 -478.79387211
     atom   11 type  1   force =     0.09091135    0.08219159  -20.54001979
     atom   12 type  1   force =     3.53771597    2.01821860  425.41696115
     atom   13 type  2   force =    -0.01703660    0.04167376  224.07030146
     atom   14 type  3   force =     0.00675776    0.00212965  128.62690697
     The local contribution  to forces
     atom    1 type  1   force =     0.65681801    0.39266947  477.79725630
     atom    2 type  1   force =    -0.69395009   -0.40487715   34.24902112
     atom    3 type  1   force =    -1.12237855   -0.71245466 -408.07070844
     atom    4 type  1   force =     0.07998061   -0.97552018  478.14006509
     atom    5 type  1   force =     0.12127550    0.32376477   32.18618048
     atom    6 type  1   force =     3.92672107   -0.85978652 -422.14763977
     atom    7 type  1   force =    -0.82171366    0.58485003  478.19317353
     atom    8 type  1   force =     0.37128536   -0.06105682   31.84992633
     atom    9 type  1   force =     1.19169242    3.87343844 -423.28570624
     atom   10 type  1   force =    -0.17678082   -0.06574871  479.10543230
     atom   11 type  1   force =    -0.12148293   -0.09967703   20.62133874
     atom   12 type  1   force =    -3.35531442   -1.91239922 -425.63577103
     atom   13 type  2   force =     0.02206936   -0.02910346 -221.78583377
     atom   14 type  3   force =    -0.02715413   -0.01665209 -129.11408491
     The core correction contribution to forces
     atom    1 type  1   force =     0.00000231    0.00000047    0.00022712
     atom    2 type  1   force =    -0.00002915   -0.00001832   -0.00004826
     atom    3 type  1   force =    -0.00005247   -0.00002940   -0.00029103
     atom    4 type  1   force =    -0.00001270   -0.00002993    0.00033432
     atom    5 type  1   force =     0.00004474   -0.00004851    0.00003178
     atom    6 type  1   force =     0.00008792    0.00008383   -0.00037700
     atom    7 type  1   force =    -0.00003107    0.00000694    0.00033335
     atom    8 type  1   force =    -0.00002100    0.00006525    0.00003020
     atom    9 type  1   force =     0.00011555    0.00003565   -0.00037912
     atom   10 type  1   force =    -0.00002325   -0.00001778    0.00045558
     atom   11 type  1   force =    -0.00004126   -0.00002570    0.00009507
     atom   12 type  1   force =     0.00003726    0.00002196   -0.00039305
     atom   13 type  2   force =     0.00000341    0.00003167    0.00644087
     atom   14 type  3   force =    -0.00024001   -0.00012950    0.00375868
     The Hubbard contrib.    to forces
     atom    1 type  1   force =     0.00000000    0.00000000    0.00000000
     atom    2 type  1   force =     0.00000000    0.00000000    0.00000000
     atom    3 type  1   force =     0.00000000    0.00000000    0.00000000
     atom    4 type  1   force =     0.00000000    0.00000000    0.00000000
     atom    5 type  1   force =     0.00000000    0.00000000    0.00000000
     atom    6 type  1   force =     0.00000000    0.00000000    0.00000000
     atom    7 type  1   force =     0.00000000    0.00000000    0.00000000
     atom    8 type  1   force =     0.00000000    0.00000000    0.00000000
     atom    9 type  1   force =     0.00000000    0.00000000    0.00000000
     atom   10 type  1   force =     0.00000000    0.00000000    0.00000000
     atom   11 type  1   force =     0.00000000    0.00000000    0.00000000
     atom   12 type  1   force =     0.00000000    0.00000000    0.00000000
     atom   13 type  2   force =     0.00000000    0.00000000    0.00000000
     atom   14 type  3   force =     0.00000000    0.00000000    0.00000000
     The SCF correction term to forces
     atom    1 type  1   force =     0.00000000    0.00000000    0.00000000
     atom    2 type  1   force =    -0.00020321   -0.00019576    0.00147416
     atom    3 type  1   force =    -0.00002336    0.00001072   -0.00266621
     atom    4 type  1   force =     0.00000000    0.00000000    0.00000000
     atom    5 type  1   force =     0.00003026    0.00017962    0.00132907
     atom    6 type  1   force =     0.00149560   -0.00072325   -0.00261619
     atom    7 type  1   force =     0.00000000    0.00000000    0.00000000
     atom    8 type  1   force =     0.00019721   -0.00000313    0.00151604
     atom    9 type  1   force =     0.00017056    0.00165415   -0.00256074
     atom   10 type  1   force =     0.00000000    0.00000000    0.00000000
     atom   11 type  1   force =    -0.00009048    0.00004218    0.00119598
     atom   12 type  1   force =    -0.00146866   -0.00092859   -0.00256484
     atom   13 type  2   force =     0.00000937   -0.00000984    0.00017871
     atom   14 type  3   force =     0.00000602   -0.00000101   -0.00028599

     Total force =     0.005514     Total SCF correction =     0.006601
     SCF correction compared to forces is large: reduce conv_thr to get better values

     Writing all to output data dir ./output/opt.save/

     General routines

     Parallel routines

   This run was terminated on:   0: 8: 8   5Jun2024

   JOB DONE.