     Program PWSCF v.7.2 starts on  4Jun2024 at  9:40:14

     Reading input from scf.in

     Current dimensions of program PWSCF are:
     Max number of different atomic species (ntypx) = 10
     Max number of k-points (npk) =  40000
     Max angular momentum in pseudopotentials (lmaxx) =  4
     Message from routine setup:
     using ibrav=0 with symmetry is DISCOURAGED, use correct ibrav instead

     K-points division:     npool     =       2
     R & G space division:  proc/nbgrp/npool/nimage =       8
     Subspace diagonalization in iterative solution of the eigenvalue problem:
     a serial algorithm will be used

     Using Slab Decomposition

     bravais-lattice index     =            0
     lattice parameter (alat)  =       4.8238  a.u.
     unit-cell volume          =      79.3703 (a.u.)^3
     number of atoms/cell      =            1
     number of atomic types    =            1
     number of electrons       =        19.00
     number of Kohn-Sham states=           14
     kinetic-energy cutoff     =      40.0000  Ry
     charge density cutoff     =     320.0000  Ry
     scf convergence threshold =      1.0E-08
     mixing beta               =       0.5000
     number of iterations used =            8  plain     mixing
     energy convergence thresh.=      1.0E-04
     force convergence thresh. =      1.0E-03
     press convergence thresh. =      5.0E-01
     Exchange-correlation= SLA  PW   PBE  PBE
                           (   1   4   3   4   0   0   0)
     nstep                     =           50

     celldm(1)=   4.823820  celldm(2)=   0.000000  celldm(3)=   0.000000
     celldm(4)=   0.000000  celldm(5)=   0.000000  celldm(6)=   0.000000

     crystal axes: (cart. coord. in units of alat)
               a(1) = (   0.000000   0.707107   0.707107 )
               a(2) = (   0.707107   0.000000   0.707107 )
               a(3) = (   0.707107   0.707107   0.000000 )

     reciprocal axes: (cart. coord. in units 2 pi/alat)
               b(1) = ( -0.707107  0.707107  0.707107 )
               b(2) = (  0.707107 -0.707107  0.707107 )
               b(3) = (  0.707107  0.707107 -0.707107 )

     PseudoPot. # 1 for Cu read from file:
     ../../pseudo/cu_pbe_v1.2.uspp.F.UPF
     MD5 check sum: 6e991ff952a84172a2a52a1c1e996048
     Pseudo is Ultrasoft + core correction, Zval = 19.0
     Generated by new atomic code, or converted to UPF format
     Using radial grid of  867 points,  6 beta functions with:
                l(1) =   0
                l(2) =   0
                l(3) =   1
                l(4) =   1
                l(5) =   2
                l(6) =   2
     Q(r) pseudized with  8 coefficients,  rinner =    1.150   1.150   1.150
                                                       1.150   1.150

     atomic species   valence    mass     pseudopotential
        Cu            19.00    63.54600     Cu( 1.00)

     Starting magnetic structure
     atomic species   magnetization
        Cu           1.000

     48 Sym. Ops., with inversion, found

   Cartesian axes

     site n.     atom                  positions (alat units)
         1           Cu  tau(   1) = (   0.0000000   0.0000000   0.0000000  )

     number of k points=    10  Methfessel-Paxton smearing, width (Ry)=  0.0100
                       cart. coord. in units 2pi/alat
        k(    1) = (   0.0883883   0.0883883   0.0883883), wk =   0.0312500
        k(    2) = (   0.2651650   0.2651650  -0.0883883), wk =   0.0937500
        k(    3) = (  -0.2651650  -0.2651650   0.4419417), wk =   0.0937500
        k(    4) = (  -0.0883883  -0.0883883   0.2651650), wk =   0.0937500
        k(    5) = (   0.4419417   0.0883883   0.0883883), wk =   0.0937500
        k(    6) = (  -0.0883883  -0.4419417   0.6187184), wk =   0.1875000
        k(    7) = (   0.0883883  -0.2651650   0.4419417), wk =   0.1875000
        k(    8) = (  -0.6187184   0.0883883   0.0883883), wk =   0.0937500
        k(    9) = (   0.2651650   0.2651650   0.2651650), wk =   0.0312500
        k(   10) = (  -0.2651650  -0.2651650   0.7954951), wk =   0.0937500

     Check: negative core charge=   -0.000001
     Generating pointlists ...
     new r_m :   0.4125 (alat units)  1.9898 (a.u.) for type    1

     Initial potential from superposition of free atoms

     starting charge      18.0000, renormalised to      19.0000
     Starting wfcs are   13 randomized atomic wfcs +    1 random wfcs

     Self-consistent Calculation

     iteration #  1     ecut=    40.00 Ry     beta= 0.50
     Davidson diagonalization with overlap
     ethr =  1.00E-02,  avg # of iterations =  5.1

     total energy              =    -394.94016166 Ry
     estimated scf accuracy    <      21.47389944 Ry

     total magnetization       =     6.12 Bohr mag/cell
     absolute magnetization    =     6.12 Bohr mag/cell

[...]

     Magnetic moment per site  (integrated on atomic sphere of radius R)
     atom   1 (R=0.413)  charge= 17.8144  magn= -0.0000

     End of self-consistent calculation

 ------ SPIN UP ------------

          k = 0.0884 0.0884 0.0884 (   335 PWs)   bands (ev):

   -96.3448 -53.6936 -53.6798 -53.6798   7.2745  13.0763  13.2856  13.2856
    13.9975  13.9975  35.0301  39.4047  40.2528  40.2528

[...]

          k =-0.2652-0.2652 0.4419 (   341 PWs)   bands (ev):

[...]

 ------ SPIN DOWN ----------

[...]

     the Fermi energy is    16.1269 ev

!    total energy              =    -403.77746740 Ry
     estimated scf accuracy    <          4.9E-09 Ry
     smearing contrib. (-TS)   =      -0.00012378 Ry
     internal energy E=F+TS    =    -403.77734363 Ry

     The total energy is F=E-TS. E is the sum of the following terms:
     one-electron contribution =    -267.81555287 Ry
     hartree contribution      =     145.48139355 Ry
     xc contribution           =     -38.82273183 Ry
     ewald contribution        =    -242.62045248 Ry

[...]

     convergence has been achieved in  15 iterations

     Forces acting on atoms (cartesian axes, Ry/au):

     atom    1 type  1   force =     0.00000000    0.00000000    0.00000000
     The non-local contrib.  to forces
     atom    1 type  1   force =     0.00000000   -0.00000000   -0.00000000
     The ionic contribution  to forces
     atom    1 type  1   force =     0.00000000    0.00000000    0.00000000
     The local contribution  to forces
     atom    1 type  1   force =     0.00000000    0.00000000    0.00000000
     The core correction contribution to forces
     atom    1 type  1   force =    -0.00000000    0.00000000   -0.00000000
     The Hubbard contrib.    to forces
     atom    1 type  1   force =     0.00000000    0.00000000    0.00000000
     The SCF correction term to forces
     atom    1 type  1   force =    -0.00000000   -0.00000000   -0.00000000

     Total force =     0.000000     Total SCF correction =     0.000000

     Computing stress (Cartesian axis) and pressure

          total   stress  (Ry/bohr**3)                   (kbar)     P=       51.13
   0.00034754   0.00000000   0.00000000           51.13        0.00        0.00
   0.00000000   0.00034754  -0.00000000            0.00       51.13       -0.00
   0.00000000  -0.00000000   0.00034754            0.00       -0.00       51.13

     BFGS Geometry Optimization
     Energy error            =      0.0E+00 Ry
     Gradient error          =      0.0E+00 Ry/Bohr
     Cell gradient error     =      5.1E+01 kbar

     number of scf cycles    =   1
     number of bfgs steps    =   0

     enthalpy           new  =    -403.7774674042 Ry

     new trust radius        =       0.0154813098 bohr
     new conv_thr            =       0.0000000100 Ry

     new unit-cell volume =     81.45721 a.u.^3 (    12.07071 Ang^3 )
     density =      8.74187 g/cm^3

CELL_PARAMETERS (angstrom)
   0.000000000   1.820682879   1.820682879
   1.820682879  -0.000000000   1.820682879
   1.820682879   1.820682879   0.000000000

ATOMIC_POSITIONS (angstrom)
Cu            0.0000000000        0.0000000000        0.0000000000

     Writing config-only to output data dir ./output/opt.save/
     NEW-OLD atomic charge density approx. for the potential

     Check: negative core charge=   -0.000001
     extrapolated charge   19.46115, renormalised to   19.00000
     Generating pointlists ...

[...]

     iteration #  2     ecut=    40.00 Ry     beta= 0.50
     Davidson diagonalization with overlap
     ethr =  9.45E-03,  avg # of iterations =  2.9
     Minimization algorithm failed to find Fermi energy: reverting to bisection
     Possible cause: smearing is larger than the electronic band-gap.

[...]

     Energy error            =      3.5E-04 Ry
     Gradient error          =      0.0E+00 Ry/Bohr
     Cell gradient error     =      1.2E+00 kbar

[...]

     enthalpy           old  =    -403.7774674042 Ry
     enthalpy           new  =    -403.7778137967 Ry

     CASE: enthalpy          _new < enthalpy          _old

[...]

     WARNING: bfgs curvature condition failed, Theta= 0.334
     new trust radius        =       0.0004138460 bohr
     new conv_thr            =            1.0E-10 Ry

[...]

     number of scf cycles    =   4
     number of bfgs steps    =   3

     enthalpy           old  =    -403.7778148903 Ry
     enthalpy           new  =    -403.7778156997 Ry

     CASE: enthalpy          _new < enthalpy          _old

     new trust radius        =       0.0005256942 bohr
     new conv_thr            =            1.0E-10 Ry

     new unit-cell volume =     81.63544 a.u.^3 (    12.09712 Ang^3 )
     density =      8.72279 g/cm^3

[...]

ATOMIC_POSITIONS (angstrom)
Cu            0.0000000000        0.0000000000        0.0000000000

     Writing config-only to output data dir ./output/opt.save/
     NEW-OLD atomic charge density approx. for the potential

     Check: negative core charge=   -0.000001
     extrapolated charge   19.01571, renormalised to   19.00000
     Generating pointlists ...

[...]

     Energy error            =      4.4E-07 Ry
     Gradient error          =      0.0E+00 Ry/Bohr
     Cell gradient error     =      1.7E-01 kbar
Begin final coordinates
     new unit-cell volume =     81.63544 a.u.^3 (    12.09712 Ang^3 )
     density =      8.72279 g/cm^3

[...]

ATOMIC_POSITIONS (angstrom)
Cu            0.0000000000        0.0000000000        0.0000000000
End final coordinates

     Writing config-only to output data dir ./output/opt.save/

     lsda relaxation :  a final configuration with zero
                        absolute magnetization has been found

     the program is checking if it is really the minimum energy structure
     by performing a new scf iteration without any "electronic" history

[...]

     starting charge      18.0000, renormalised to      19.0000

[...]

     Energy error            =      4.4E-07 Ry
     Gradient error          =      0.0E+00 Ry/Bohr
     Cell gradient error     =      7.3E-02 kbar

     bfgs converged in   5 scf cycles and   4 bfgs steps
     (criteria: energy <  1.0E-04 Ry, force <  1.0E-03 Ry/Bohr, cell <  5.0E-01 kbar)

     End of BFGS Geometry Optimization

     Final enthalpy           =    -403.7778161351 Ry

     File ./output/opt.bfgs deleted, as requested
Begin final coordinates
     new unit-cell volume =     81.63544 a.u.^3 (    12.09712 Ang^3 )
     density =      8.72279 g/cm^3

CELL_PARAMETERS (angstrom)
   0.000000000   1.822009823   1.822009823
   1.822009823  -0.000000000   1.822009823
   1.822009823   1.822009823   0.000000000

ATOMIC_POSITIONS (angstrom)
Cu            0.0000000000        0.0000000000        0.0000000000
End final coordinates

     Writing config-only to output data dir ./output/opt.save/

     Final scf calculation at the relaxed structure.
     The G-vectors are recalculated for the final unit cell
     Results may differ from those at the preceding step.

     Using Slab Decomposition

     bravais-lattice index     =            0
     lattice parameter (alat)  =       4.8238  a.u.
     unit-cell volume          =      81.6354 (a.u.)^3
     number of atoms/cell      =            1
     number of atomic types    =            1
     number of electrons       =        19.00
     number of Kohn-Sham states=           14
     kinetic-energy cutoff     =      40.0000  Ry
     charge density cutoff     =     320.0000  Ry
     scf convergence threshold =      1.0E-10
     mixing beta               =       0.5000
     number of iterations used =            8  plain     mixing
     press convergence thresh. =      5.0E-01
     Exchange-correlation= SLA  PW   PBE  PBE
                           (   1   4   3   4   0   0   0)

     celldm(1)=   4.823820  celldm(2)=   0.000000  celldm(3)=   0.000000
     celldm(4)=   0.000000  celldm(5)=   0.000000  celldm(6)=   0.000000

     crystal axes: (cart. coord. in units of alat)
               a(1) = (   0.000000   0.713770   0.713770 )
               a(2) = (   0.713770  -0.000000   0.713770 )
               a(3) = (   0.713770   0.713770   0.000000 )

     reciprocal axes: (cart. coord. in units 2 pi/alat)
               b(1) = ( -0.700505  0.700505  0.700505 )
               b(2) = (  0.700505 -0.700505  0.700505 )
               b(3) = (  0.700505  0.700505 -0.700505 )

     PseudoPot. # 1 for Cu read from file:
     ../../pseudo/cu_pbe_v1.2.uspp.F.UPF
     MD5 check sum: 6e991ff952a84172a2a52a1c1e996048
     Pseudo is Ultrasoft + core correction, Zval = 19.0
     Generated by new atomic code, or converted to UPF format
     Using radial grid of  867 points,  6 beta functions with:
                l(1) =   0
                l(2) =   0
                l(3) =   1
                l(4) =   1
                l(5) =   2
                l(6) =   2
     Q(r) pseudized with  8 coefficients,  rinner =    1.150   1.150   1.150
                                                       1.150   1.150

     atomic species   valence    mass     pseudopotential
        Cu            19.00    63.54600     Cu( 1.00)

     Starting magnetic structure
     atomic species   magnetization
        Cu           0.000

     48 Sym. Ops., with inversion, found

   Cartesian axes

     site n.     atom                  positions (alat units)
         1           Cu  tau(   1) = (   0.0000000   0.0000000   0.0000000  )

     number of k points=    10  Methfessel-Paxton smearing, width (Ry)=  0.0100
                       cart. coord. in units 2pi/alat
        k(    1) = (   0.0875632   0.0875632   0.0875632), wk =   0.0312500
        k(    2) = (   0.2626895   0.2626895  -0.0875632), wk =   0.0937500
        k(    3) = (  -0.2626895  -0.2626895   0.4378159), wk =   0.0937500
        k(    4) = (  -0.0875632  -0.0875632   0.2626895), wk =   0.0937500
        k(    5) = (   0.4378159   0.0875632   0.0875632), wk =   0.0937500
        k(    6) = (  -0.0875632  -0.4378159   0.6129422), wk =   0.1875000
        k(    7) = (   0.0875632  -0.2626895   0.4378159), wk =   0.1875000
        k(    8) = (  -0.6129422   0.0875632   0.0875632), wk =   0.0937500
        k(    9) = (   0.2626895   0.2626895   0.2626895), wk =   0.0312500
        k(   10) = (  -0.2626895  -0.2626895   0.7880686), wk =   0.0937500

     Check: negative core charge=   -0.000001
     Generating pointlists ...

     Initial potential from superposition of free atoms

     starting charge      18.0000, renormalised to      19.0000
     Starting wfcs are   13 randomized atomic wfcs +    1 random wfcs

     Self-consistent Calculation

[...]

     iteration # 11     ecut=    40.00 Ry     beta= 0.50
     Davidson diagonalization with overlap
     ethr =  7.58E-06,  avg # of iterations =  1.0
     Minimization algorithm failed to find Fermi energy: reverting to bisection
     Possible cause: smearing is larger than the electronic band-gap.

[...]

     total energy              =    -403.77789682 Ry
     estimated scf accuracy    <          3.0E-09 Ry

[...]

     iteration # 24     ecut=    40.00 Ry     beta= 0.50
     Davidson diagonalization with overlap
     ethr =  1.59E-11,  avg # of iterations =  1.8

     Magnetic moment per site  (integrated on atomic sphere of radius R)
     atom   1 (R=0.413)  charge= 17.7860  magn= -0.0000

     End of self-consistent calculation

 ------ SPIN UP ------------

[...]

 ------ SPIN DOWN ----------

[...]

          k = 0.2627 0.2627 0.2627 (   353 PWs)   bands (ev):

[...]

          k =-0.2627-0.2627 0.7881 (   355 PWs)   bands (ev):

   -96.8440 -54.2756 -54.2459 -54.2182  11.5321  12.0385  12.5378  13.2196
    13.8779  17.6903  20.7384  26.3733  32.9834  35.5527

     the Fermi energy is    15.5334 ev

!    total energy              =    -403.77789682 Ry
     estimated scf accuracy    <          2.0E-11 Ry
     smearing contrib. (-TS)   =      -0.00014325 Ry
     internal energy E=F+TS    =    -403.77775357 Ry

     The total energy is F=E-TS. E is the sum of the following terms:
     one-electron contribution =    -271.64891635 Ry
     hartree contribution      =     147.03603497 Ry
     xc contribution           =     -38.80946287 Ry
     ewald contribution        =    -240.35540932 Ry

     total magnetization       =    -0.00 Bohr mag/cell
     absolute magnetization    =     0.00 Bohr mag/cell

     convergence has been achieved in  24 iterations

     Forces acting on atoms (cartesian axes, Ry/au):

     atom    1 type  1   force =     0.00000000    0.00000000    0.00000000
     The non-local contrib.  to forces
     atom    1 type  1   force =     0.00000000    0.00000000   -0.00000000
     The ionic contribution  to forces
     atom    1 type  1   force =     0.00000000    0.00000000    0.00000000
     The local contribution  to forces
     atom    1 type  1   force =     0.00000000    0.00000000    0.00000000
     The core correction contribution to forces
     atom    1 type  1   force =    -0.00000000    0.00000000   -0.00000000
     The Hubbard contrib.    to forces
     atom    1 type  1   force =     0.00000000    0.00000000    0.00000000
     The SCF correction term to forces
     atom    1 type  1   force =     0.00000000   -0.00000000   -0.00000000

     Total force =     0.000000     Total SCF correction =     0.000000

     Computing stress (Cartesian axis) and pressure

          total   stress  (Ry/bohr**3)                   (kbar)     P=        4.07
   0.00002768   0.00000000  -0.00000000            4.07        0.00       -0.00
   0.00000000   0.00002768   0.00000000            0.00        4.07        0.00
  -0.00000000   0.00000000   0.00002768           -0.00        0.00        4.07

     Writing all to output data dir ./output/opt.save/

     General routines

     Parallel routines

   This run was terminated on:   9:40:19   4Jun2024

   JOB DONE.