     Program PWSCF v.7.3.1 starts on 10Jun2024 at 16:29:31

     Reading input from scf.in

     Current dimensions of program PWSCF are:
     Max number of different atomic species (ntypx) = 10
     Max number of k-points (npk) =  40000
     Max angular momentum in pseudopotentials (lmaxx) =  4
     Message from routine iosys_1drism:
     default density from MOL file(H2O.tip5p.Nishihara.MOL) is used
     Found identity + ( -0.0000 -0.5000  0.0000) symmetry
     This is a supercell, fractional translations are disabled

     R & G space division:  proc/nbgrp/npool/nimage =      32
     Subspace diagonalization in iterative solution of the eigenvalue problem:
     a serial algorithm will be used

     Molecule # 1 for H2O read from file:
     ../../../pseudo/H2O.tip5p.Nishihara.MOL
     Density:
         0.23069113E+02 cell^-1
         0.49533751E-02 bohr^-3
         0.55506881E+02 mol/L
         0.99997200E+00 g/cm^3
     Permittivity:
        78.500000
     Number of atoms:   5
     Atoms:
       #  atom      X (angs)      Y (angs)      Z (angs)      Q (e)         E (kcal/mol)  S (angs)
       1  O/h2o     0.00000000   -0.06556000    0.00000000    0.00000000    0.16000000    3.12000000
       2  H/h2o     0.75695000    0.52032000    0.00000000    0.24100000    0.04600000    1.00000000
       3  H/h2o    -0.75695000    0.52032000    0.00000000    0.24100000    0.04600000    1.00000000
       4  L/h2o     0.00000000   -0.46971000    0.57154000   -0.24100000    0.04600000    1.80000000
       5  L/h2o     0.00000000   -0.46971000   -0.57154000   -0.24100000    0.04600000    1.80000000

     Molecule # 2 for K+ read from file:
     ../../../pseudo/K+.Hagiwara.MOL
     Density:
         0.41560816E+00 cell^-1
         0.89238937E-04 bohr^-3
         0.10000000E+01 mol/L
         0.39098300E-01 g/cm^3
     Number of atoms:   1
     Atoms:
       #  atom      X (angs)      Y (angs)      Z (angs)      Q (e)         E (kcal/mol)  S (angs)
       1  K         0.00000000    0.00000000    0.00000000    1.00000000    0.00032800    4.93462800

     Molecule # 3 for OH- read from file:
     ../../../pseudo/OH-.oplsaa.MOL
     Density:
         0.41560816E+00 cell^-1
         0.89238937E-04 bohr^-3
         0.10000000E+01 mol/L
         0.17007340E-01 g/cm^3
     Number of atoms:   2
     Atoms:
       #  atom      X (angs)      Y (angs)      Z (angs)      Q (e)         E (kcal/mol)  S (angs)
       1  O/oh      0.00000000    0.00000000    0.00000000   -1.30000000    0.25000000    3.20000000
       2  H/oh      0.95300000    0.00000000    0.00000000    0.30000000    0.04600000    1.00000000

     1D-RISM info
     closure equation        =           KH
     temperature             =     300.0000  kelvin
     coulomb smearing radius =       2.0000  bohr
     number of solvent sites =            8
     number of grids         =         5973
     maximum of R-space      =     999.8326  bohr
     maximum of G-space      =      18.7632  bohr^-1
     number of iterations    =        15000
     convergence threshold   =      1.0E-08
     Gaussian width of bonds =       0.3162  bohr
     size of MDIIS           =           20
     step of MDIIS           =       0.2000
     number of processes     =           32

     Correlation function is read from file

     1D-RISM Calculation

     iter. #     1  RMS(g-h-1)= 9.990E-09  nbox=  0  T=  300.00K

     End of 1D-RISM calculation

     convergence has been achieved in     1 iterations

     Chemical potential of solvation

     H2O        H2O        Closure      0.144028E+01 kcal/mol
                           GaussFluct  -0.702227E+01 kcal/mol

                K+         Closure     -0.280532E+00 kcal/mol
                           GaussFluct  -0.350073E+00 kcal/mol

                OH-        Closure     -0.749901E+00 kcal/mol
                           GaussFluct  -0.841435E+00 kcal/mol

                Total      Closure      0.409852E+00 kcal/mol
                           GaussFluct  -0.821378E+01 kcal/mol

     K+         H2O        Closure     -0.155715E+02 kcal/mol
                           GaussFluct  -0.194314E+02 kcal/mol

[...]

     OH-        H2O        Closure     -0.416246E+02 kcal/mol
                           GaussFluct  -0.467054E+02 kcal/mol

                K+         Closure     -0.351595E+06 kcal/mol
                           GaussFluct  -0.351595E+06 kcal/mol

                OH-        Closure      0.351544E+06 kcal/mol
                           GaussFluct   0.351544E+06 kcal/mol

                Total      Closure     -0.925530E+02 kcal/mol
                           GaussFluct  -0.977563E+02 kcal/mol

     Using Slab Decomposition

     bravais-lattice index     =            0
     lattice parameter (alat)  =       9.7396  a.u.
     unit-cell volume          =    4657.2513 (a.u.)^3
     number of atoms/cell      =           12
     number of atomic types    =            1
     number of electrons       =       227.95
     number of Kohn-Sham states=          137
     kinetic-energy cutoff     =      40.0000  Ry
     charge density cutoff     =     320.0000  Ry
     scf convergence threshold =      1.0E-06
     mixing beta               =       0.1000
     number of iterations used =            8  plain     mixing
     Exchange-correlation= SLA  PW   PBE  PBE
                           (   1   4   3   4   0   0   0)

     Effective Screening Medium Method
     Boundary Conditions: Vacuum-Slab-Vacuum
     total charge in unit cell        =   0.0500
     grid points for fit at edges     =        4

     celldm(1)=   9.739563  celldm(2)=   0.000000  celldm(3)=   0.000000
     celldm(4)=   0.000000  celldm(5)=   0.000000  celldm(6)=   0.000000

     crystal axes: (cart. coord. in units of alat)
               a(1) = (   1.000000   0.000000   0.000000 )
               a(2) = (   0.500000   0.866025   0.000000 )
               a(3) = (   0.000000   0.000000   5.820773 )

     reciprocal axes: (cart. coord. in units 2 pi/alat)
               b(1) = (  1.000000 -0.577350  0.000000 )
               b(2) = (  0.000000  1.154701  0.000000 )
               b(3) = (  0.000000  0.000000  0.171798 )

     PseudoPot. # 1 for Cu read from file:
     ../../../pseudo/cu_pbe_v1.2.uspp.F.UPF
     MD5 check sum: 6e991ff952a84172a2a52a1c1e996048
     Pseudo is Ultrasoft + core correction, Zval = 19.0
     Generated by new atomic code, or converted to UPF format
     Using radial grid of  867 points,  6 beta functions with:
                l(1) =   0
                l(2) =   0
                l(3) =   1
                l(4) =   1
                l(5) =   2
                l(6) =   2
     Q(r) pseudized with  8 coefficients,  rinner =    1.150   1.150   1.150
                                                       1.150   1.150

     atomic species   valence    mass     pseudopotential
     Cu               19.00    63.54600     Cu( 1.00)

     No symmetry found

   Cartesian axes

     site n.     atom                  positions (alat units)
         1        Cu     tau(   1) = (   0.0000000   0.0000000  -0.4043952  )
         2        Cu     tau(   2) = (   0.5000000   0.2886751   0.0038531  )
         3        Cu     tau(   3) = (   0.2500000   0.1443376   0.4121014  )
         4        Cu     tau(   4) = (   0.2500000   0.4330127  -0.4043952  )
         5        Cu     tau(   5) = (   0.7500000   0.7216878   0.0038531  )
         6        Cu     tau(   6) = (   0.5000000   0.5773503   0.4121014  )
         7        Cu     tau(   7) = (   0.5000000   0.0000000  -0.4043952  )
         8        Cu     tau(   8) = (   1.0000000   0.2886751   0.0038531  )
         9        Cu     tau(   9) = (   0.7500000   0.1443376   0.4121014  )
        10        Cu     tau(  10) = (   0.7500000   0.4330127  -0.4043952  )
        11        Cu     tau(  11) = (   1.2500000   0.7216878   0.0038531  )
        12        Cu     tau(  12) = (   1.0000000   0.5773503   0.4121014  )

     number of k points=     8  Gaussian smearing, width (Ry)=  0.0100
                       cart. coord. in units 2pi/alat
        k(    1) = (   0.1250000   0.0721688   0.0000000), wk =   0.2500000
        k(    2) = (   0.1250000   0.3608439   0.0000000), wk =   0.2500000
        k(    3) = (   0.1250000  -0.5051815   0.0000000), wk =   0.2500000
        k(    4) = (   0.1250000  -0.2165064   0.0000000), wk =   0.2500000
        k(    5) = (   0.3750000  -0.0721688   0.0000000), wk =   0.2500000
        k(    6) = (   0.3750000   0.2165064   0.0000000), wk =   0.2500000
        k(    7) = (   0.3750000  -0.6495191   0.0000000), wk =   0.2500000
        k(    8) = (   0.3750000  -0.3608439   0.0000000), wk =   0.2500000

     Solute:
       # atom     E (kcal/mol)  S (angs)
       1  Cu      0.00500000    3.11369102    given
       2  Cu      0.00500000    3.11369102    given
       3  Cu      0.00500000    3.11369102    given
       4  Cu      0.00500000    3.11369102    given
       5  Cu      0.00500000    3.11369102    given
       6  Cu      0.00500000    3.11369102    given
       7  Cu      0.00500000    3.11369102    given
       8  Cu      0.00500000    3.11369102    given
       9  Cu      0.00500000    3.11369102    given
      10  Cu      0.00500000    3.11369102    given
      11  Cu      0.00500000    3.11369102    given
      12  Cu      0.00500000    3.11369102    given

     Wall:
       Density =    0.01000000  bohr^-3
       E       =    0.10000000  kcal/mol
       S       =    4.00000000  angs

     Laue-RISM info
     closure equation        =           KH
     temperature             =     300.0000  kelvin
     coulomb smearing radius =       2.0000  bohr
     number of solvent sites =            6
     solvent sites           =    O/h2o   H/h2o   L/h2o       K
     solvent sites           =     O/oh    H/oh
     number of iterations    =        15000
     convergence threshold   =      1.0E-06
     convergence level       =       0.7000
     size of MDIIS           =           20
     step of MDIIS           =       0.1000
     solvent cutoff          =     160.0000  Ry
     Custom grid:   159127 G-vectors     FFT dimensions: (  40,  40, 240)

     Boundary Conditions        : Vacuum-Slab-Solvent
     unit-cell (in bohr)        : [ -28.345892  28.345892]
     expand-cell (in bohr)      : [ -28.345892  89.761991]
     solvent of right (in bohr) : [   0.000000  89.761991]
     buffer  of right (in bohr) : [  -4.015668   0.000000]
     repulsive wall (in bohr)   : [  -Infinity  -2.286274]
     reference of potential     : right-hand side
     #grids to fit at edges of unit-cell =    4
     Laue grid:     1039 Gxy-vectors     FFT dimensions: (  40,  40, 500)

     The initial density is read from file :
     ./output/opt.save/charge-density

     starting charge     228.0000, renormalised to     227.9500

     Correlation function is read from file

     negative rho (up, down):  1.587E-03 0.000E+00

     Laue-RISM Calculation

     convergence threshold    = 1.585E-05
     iter. #     1  RMS(g-h-1)= 2.597E-03  nbox=  0
     iter. #    11  RMS(g-h-1)= 4.318E-04  nbox= 10
     iter. #    21  RMS(g-h-1)= 3.477E-04  nbox= 20
     iter. #    31  RMS(g-h-1)= 3.321E-04  nbox= 20
     iter. #    41  RMS(g-h-1)= 3.278E-04  nbox=  7
     iter. #    51  RMS(g-h-1)= 3.040E-04  nbox= 17
     iter. #    61  RMS(g-h-1)= 2.853E-04  nbox= 11
     iter. #    71  RMS(g-h-1)= 2.651E-04  nbox=  5
     iter. #    81  RMS(g-h-1)= 2.538E-04  nbox= 15
     iter. #    91  RMS(g-h-1)= 2.412E-04  nbox=  9
     iter. #   101  RMS(g-h-1)= 2.347E-04  nbox=  3
     iter. #   111  RMS(g-h-1)= 2.302E-04  nbox= 13
     iter. #   121  RMS(g-h-1)= 2.201E-04  nbox=  7
     iter. #   131  RMS(g-h-1)= 2.099E-04  nbox= 17
     iter. #   141  RMS(g-h-1)= 2.005E-04  nbox= 11
     iter. #   151  RMS(g-h-1)= 1.698E-04  nbox=  5
     iter. #   161  RMS(g-h-1)= 1.694E-04  nbox= 15
     iter. #   171  RMS(g-h-1)= 1.424E-04  nbox=  9
     iter. #   181  RMS(g-h-1)= 1.295E-04  nbox= 19
     iter. #   191  RMS(g-h-1)= 1.227E-04  nbox= 11
     iter. #   201  RMS(g-h-1)= 1.116E-04  nbox=  5
     iter. #   211  RMS(g-h-1)= 9.878E-05  nbox= 15
     iter. #   221  RMS(g-h-1)= 9.488E-05  nbox=  9
     iter. #   231  RMS(g-h-1)= 9.214E-05  nbox=  3
     iter. #   241  RMS(g-h-1)= 8.972E-05  nbox= 13
     iter. #   251  RMS(g-h-1)= 8.795E-05  nbox=  7
     iter. #   261  RMS(g-h-1)= 8.729E-05  nbox= 17
     iter. #   271  RMS(g-h-1)= 8.603E-05  nbox= 11
     iter. #   281  RMS(g-h-1)= 8.384E-05  nbox=  5
     iter. #   291  RMS(g-h-1)= 8.129E-05  nbox= 15
     iter. #   301  RMS(g-h-1)= 7.928E-05  nbox=  9
     iter. #   311  RMS(g-h-1)= 7.707E-05  nbox=  3
     iter. #   321  RMS(g-h-1)= 7.340E-05  nbox= 13
     iter. #   331  RMS(g-h-1)= 6.782E-05  nbox=  7
     iter. #   341  RMS(g-h-1)= 6.343E-05  nbox= 17
     iter. #   351  RMS(g-h-1)= 5.801E-05  nbox= 11
     iter. #   361  RMS(g-h-1)= 5.303E-05  nbox=  5
     iter. #   371  RMS(g-h-1)= 5.119E-05  nbox= 15
     iter. #   381  RMS(g-h-1)= 5.051E-05  nbox=  9
     iter. #   391  RMS(g-h-1)= 4.934E-05  nbox= 19
     iter. #   401  RMS(g-h-1)= 4.842E-05  nbox= 11
     iter. #   411  RMS(g-h-1)= 4.803E-05  nbox=  5
     iter. #   421  RMS(g-h-1)= 4.740E-05  nbox= 15
     iter. #   431  RMS(g-h-1)= 4.629E-05  nbox=  9
     iter. #   441  RMS(g-h-1)= 4.441E-05  nbox=  3
     iter. #   451  RMS(g-h-1)= 4.241E-05  nbox= 13
     iter. #   461  RMS(g-h-1)= 4.073E-05  nbox=  7
     iter. #   471  RMS(g-h-1)= 3.787E-05  nbox= 17
     iter. #   481  RMS(g-h-1)= 3.464E-05  nbox= 11
     iter. #   491  RMS(g-h-1)= 3.073E-05  nbox=  5
     iter. #   501  RMS(g-h-1)= 2.722E-05  nbox= 15
     iter. #   511  RMS(g-h-1)= 2.550E-05  nbox=  9
     iter. #   521  RMS(g-h-1)= 2.416E-05  nbox=  3
     iter. #   531  RMS(g-h-1)= 2.245E-05  nbox= 13
     iter. #   541  RMS(g-h-1)= 2.040E-05  nbox=  7
     iter. #   551  RMS(g-h-1)= 1.886E-05  nbox= 17
     iter. #   561  RMS(g-h-1)= 1.752E-05  nbox= 11
     iter. #   571  RMS(g-h-1)= 1.668E-05  nbox=  5
     iter. #   580  RMS(g-h-1)= 1.570E-05  nbox= 14

     End of Laue-RISM calculation

[...]

     solvent charge   -0.04898, renormalised to   -0.05000

     Total number of solvent (in expand-cell)
     H2O           32.863879
     K+             0.606108
     OH-            0.656426

     Total charge of solvent (in expand-cell)
     H2O           -0.000104 e
     K+             0.606108 e
     OH-           -0.654989 e
     Total         -0.048985 e

     Chemical potential of solvation (in expand-cell)
     H2O        GaussFluct   0.437462E+01 kcal/mol
     K+         GaussFluct  -0.713660E+02 kcal/mol
     OH-        GaussFluct   0.726865E+02 kcal/mol
     Total      GaussFluct   0.569514E+01 kcal/mol

     Starting wfcs from file

     Self-consistent Calculation

     iteration #  1     ecut=    40.00 Ry     beta= 0.10
     Davidson diagonalization with overlap
     c_bands:  2 eigenvalues not converged
     c_bands:  4 eigenvalues not converged
     c_bands:  2 eigenvalues not converged
     c_bands:  3 eigenvalues not converged
     c_bands:  4 eigenvalues not converged
     c_bands:  3 eigenvalues not converged
     c_bands:  3 eigenvalues not converged
     c_bands:  1 eigenvalues not converged
     ethr =  1.00E-05,  avg # of iterations = 30.0

[...]

     total energy              =   -4844.94090277 Ry
     estimated scf accuracy    <       0.67090621 Ry

     iteration #  2     ecut=    40.00 Ry     beta= 0.10
     Davidson diagonalization with overlap
     ethr =  2.94E-04,  avg # of iterations =  4.9

[...]

     iteration #  7     ecut=    40.00 Ry     beta= 0.10
     Davidson diagonalization with overlap
     c_bands:  2 eigenvalues not converged
     ethr =  9.82E-08,  avg # of iterations =  4.4

[...]

     total energy              =   -4845.06528799 Ry
     estimated scf accuracy    <       0.00000274 Ry

     iteration # 14     ecut=    40.00 Ry     beta= 0.10
     Davidson diagonalization with overlap
     ethr =  1.20E-09,  avg # of iterations =  5.5

[...]

     Laue-RISM Calculation

     convergence threshold    = 1.000E-06
     iter. #     1  RMS(g-h-1)= 7.848E-05  nbox=  0
     iter. #    11  RMS(g-h-1)= 9.040E-06  nbox= 10
     iter. #    21  RMS(g-h-1)= 3.331E-06  nbox= 20
     iter. #    31  RMS(g-h-1)= 2.250E-06  nbox= 20
     iter. #    41  RMS(g-h-1)= 1.833E-06  nbox= 20
     iter. #    51  RMS(g-h-1)= 1.462E-06  nbox= 20
     iter. #    61  RMS(g-h-1)= 1.309E-06  nbox= 20
     iter. #    71  RMS(g-h-1)= 1.200E-06  nbox=  6
     iter. #    78  RMS(g-h-1)= 9.797E-07  nbox= 13

     End of Laue-RISM calculation

[...]

     solvent charge   -0.04996, renormalised to   -0.05000

     Total number of solvent (in expand-cell)
     H2O           32.852996
     K+             0.605048
     OH-            0.654996

     Total charge of solvent (in expand-cell)
     H2O           -0.000013 e
     K+             0.605048 e
     OH-           -0.654995 e
     Total         -0.049959 e

     Chemical potential of solvation (in expand-cell)
     H2O        GaussFluct   0.452613E+01 kcal/mol
     K+         GaussFluct  -0.612299E+02 kcal/mol
     OH-        GaussFluct   0.621090E+02 kcal/mol
     Total      GaussFluct   0.540515E+01 kcal/mol

     End of self-consistent calculation

          k = 0.1250 0.0722 0.0000 ( 19861 PWs)   bands (ev):

  -117.1286-117.1210-117.1207-117.1207-116.8556-116.8481-116.8478-116.8478
  -116.8470-116.8394-116.8391-116.8391 -74.5579 -74.5579 -74.5530 -74.5253
   -74.5153 -74.5150 -74.5150 -74.5031 -74.5018 -74.5018 -74.4854 -74.4830
   -74.3073 -74.3073 -74.2994 -74.2994 -74.2939 -74.2862 -74.2559 -74.2481
   -74.2460 -74.2460 -74.2384 -74.2384 -74.2384 -74.2306 -74.2256 -74.2180
   -74.2101 -74.2029 -74.2026 -74.2026 -74.1997 -74.1930 -74.1927 -74.1927
   -13.0330 -11.0890  -9.6092  -9.3562  -9.2159  -9.2159  -9.0328  -8.9893
    -8.9893  -8.6617  -8.6219  -8.6219  -8.5256  -8.5256  -8.5251  -7.9466
    -7.9466  -7.9353  -7.5911  -7.5908  -7.5851  -7.5851  -7.5507  -7.4832
    -7.4683  -7.3639  -7.3639  -7.2916  -7.2803  -7.2676  -7.1980  -7.1448
    -7.1350  -7.1098  -7.1098  -6.7377  -6.7377  -6.7110  -6.7066  -6.7014
    -6.6318  -6.6293  -6.6293  -6.5582  -6.3947  -6.3221  -6.3061  -6.3061
    -6.2791  -6.2455  -6.2332  -6.2332  -6.2094  -6.2094  -6.1918  -6.1845
    -6.0808  -6.0808  -6.0027  -6.0027  -5.9866  -5.9733  -5.8476  -5.3686
    -4.6270  -4.6270  -4.3855  -4.3008  -3.5937  -3.5937  -2.6069  -2.6069
    -2.3636  -0.4546  -0.1579  -0.0656  -0.0656  -0.0592  -0.0029   0.5287
     0.7748   0.7748   0.8033   0.9554   1.8031   2.0555   2.1205   2.1205
     2.1580

[...]

          k = 0.3750-0.3608 0.0000 ( 19917 PWs)   bands (ev):

  -117.1255-117.1239-117.1216-117.1200-116.8525-116.8509-116.8487-116.8471
  -116.8438-116.8422-116.8400-116.8384 -74.5431 -74.5406 -74.5288 -74.5240
   -74.5211 -74.5190 -74.5161 -74.5159 -74.5140 -74.5083 -74.4944 -74.4892
   -74.2874 -74.2869 -74.2797 -74.2792 -74.2781 -74.2736 -74.2703 -74.2677
   -74.2659 -74.2599 -74.2553 -74.2477 -74.2396 -74.2322 -74.2320 -74.2246
   -74.2070 -74.2055 -74.2034 -74.2020 -74.1970 -74.1956 -74.1936 -74.1922
   -11.6411 -10.8292  -9.8760  -9.5301  -9.3582  -8.8187  -8.7412  -8.6525
    -8.5749  -8.5350  -8.3481  -8.3385  -8.1740  -8.1379  -8.1053  -7.9846
    -7.9561  -7.9418  -7.8736  -7.8659  -7.7632  -7.7479  -7.5824  -7.5766
    -7.4706  -7.4481  -7.3778  -7.3605  -7.3469  -7.3322  -7.3246  -7.2904
    -7.2787  -7.2098  -7.1864  -7.1453  -7.1444  -7.1270  -7.0732  -7.0529
    -7.0030  -6.8393  -6.8302  -6.7860  -6.7204  -6.7138  -6.6945  -6.6614
    -6.6385  -6.5911  -6.5024  -6.4756  -6.4684  -6.3972  -6.3954  -6.3459
    -6.2911  -6.2328  -6.2015  -6.1909  -6.1873  -6.1323  -6.1287  -6.0653
    -5.4589  -4.6842  -4.5934  -3.9137  -3.4769  -2.2873  -2.2025  -2.1351
    -1.0947  -0.3352   0.8292   0.8356   0.8921   1.2716   1.3284   1.6853
     1.8313   1.9557   2.1461   2.1474   2.2177   2.2594   2.8652   2.8983
     3.0445

     the Fermi energy is    -4.6545 ev

!    total energy              =   -4845.06529912 Ry
     estimated scf accuracy    <       0.00000016 Ry
     smearing contrib. (-TS)   =      -0.00796121 Ry
     internal energy E=F+TS    =   -4845.05733791 Ry

     The total energy is F=E-TS. E is the sum of the following terms:
     one-electron contribution =   26918.75785813 Ry
     hartree contribution      =  -13488.64614317 Ry
     xc contribution           =    -465.23515335 Ry
     ewald contribution        =  -17809.95104590 Ry
     solvation energy (RISM)   =       0.01723884 Ry
     level-shifting contrib.   =      -0.00009246 Ry

     convergence has been achieved in  14 iterations

     negative rho (up, down):  1.597E-03 0.000E+00

     Forces acting on atoms (cartesian axes, Ry/au):

     atom    1 type  1   force =     0.00023909    0.00014447    0.00613964
     atom    2 type  1   force =    -0.00000275    0.00000673    0.00020770
     atom    3 type  1   force =    -0.00024632   -0.00013711   -0.00709326
     atom    4 type  1   force =     0.00024401    0.00014171    0.00614650
     atom    5 type  1   force =    -0.00000347   -0.00000484    0.00022189
     atom    6 type  1   force =    -0.00024073   -0.00014454   -0.00710257
     atom    7 type  1   force =     0.00025137    0.00014326    0.00614225
     atom    8 type  1   force =    -0.00000229    0.00000088    0.00021253
     atom    9 type  1   force =    -0.00024437   -0.00013992   -0.00710638
     atom   10 type  1   force =     0.00024512    0.00013616    0.00614811
     atom   11 type  1   force =     0.00000144   -0.00000363    0.00020795
     atom   12 type  1   force =    -0.00024110   -0.00014316   -0.00709894

     Total force =     0.014212     Total SCF correction =     0.000912

     Writing all to output data dir ./output/opt.save/ :
     XML data file, charge density, RISM restart, pseudopotentials, RISM molfiles, collected wavefunctions

     General routines

     Parallel routines

     RISM routines

   This run was terminated on:  16:37:29  10Jun2024

   JOB DONE.