     Program PWSCF v.7.3.1 starts on 10Jun2024 at  9:45:20

     Reading input from scf.in
Warning: card &CELL ignored
Warning: card / ignored
Warning: card &FCP ignored
Warning: card    FCP_MU           = -5.03 ignored
Warning: card    FCP_DYNAMICS     = 'BFGS' ignored
Warning: card    FCP_CONV_THR     = 0.01 ignored
Warning: card    FREEZE_ALL_ATOMS = .FALSE. ignored
Warning: card / ignored
Warning: card &RISM ignored
Warning: card    NSOLV            = 3 ignored
Warning: card    CLOSURE          = 'KH' ignored
Warning: card    TEMPV            = 300.0 ignored
Warning: card    ECUTSOLV         = 160.0 ignored
Warning: card    SOLUTE_LJ(1)     = 'NONE' ignored
Warning: card    SOLUTE_EPSILON(1) = 0.005 ignored
Warning: card    SOLUTE_SIGMA(1)  = 3.11369102 ignored
Warning: card    STARTING1D       = 'ZERO' ignored
Warning: card    STARTING3D       = 'ZERO' ignored
Warning: card    RISM1D_MAXSTEP   = 15000 ignored
Warning: card    RISM3D_MAXSTEP   = 15000 ignored
Warning: card    RISM1D_CONV_THR  = 1E-08 ignored
Warning: card    RISM3D_CONV_THR  = 1E-06 ignored
Warning: card    MDIIS1D_SIZE     = 20 ignored
Warning: card    MDIIS3D_SIZE     = 20 ignored
Warning: card    MDIIS1D_STEP     = 0.2 ignored
Warning: card    MDIIS3D_STEP     = 0.1 ignored
Warning: card    RISM3D_CONV_LEVEL = 0.7 ignored
Warning: card    LAUE_EXPAND_RIGHT = 60 ignored
Warning: card    LAUE_BUFFER_RIGHT = 4.0 ignored
Warning: card / ignored
Warning: card SOLVENTS {MOL/L} ignored
Warning: card H2O -1.0 H2O.TIP5P.NISHIHARA.MOL ignored
Warning: card K+   1.0 K+.HAGIWARA.MOL ignored
Warning: card OH-  1.0 OH-.OPLSAA.MOL ignored

     Current dimensions of program PWSCF are:
     Max number of different atomic species (ntypx) = 10
     Max number of k-points (npk) =  40000
     Max angular momentum in pseudopotentials (lmaxx) =  4
     Message from routine iosys:
     mixing_mode=plain is ignored, 'TF' is adopted
     Message from routine iosys:
     accurate eigenvalues are required for all states: diago_full_acc=.TRUE.

     R & G space division:  proc/nbgrp/npool/nimage =      32
     Subspace diagonalization in iterative solution of the eigenvalue problem:
     a serial algorithm will be used

     Using Slab Decomposition

     bravais-lattice index     =            0
     lattice parameter (alat)  =       9.7396  a.u.
     unit-cell volume          =    4657.2513 (a.u.)^3
     number of atoms/cell      =           12
     number of atomic types    =            1
     number of electrons       =       228.00
     number of Kohn-Sham states=          137
     kinetic-energy cutoff     =      40.0000  Ry
     charge density cutoff     =     320.0000  Ry
     scf convergence threshold =      1.0E-06
     mixing beta               =       0.1000
     number of iterations used =            8  TF        mixing
     energy convergence thresh.=      1.0E-04
     force convergence thresh. =      1.0E-03
     Exchange-correlation= SLA  PW   PBE  PBE
                           (   1   4   3   4   0   0   0)
     nstep                     =           50

     Effective Screening Medium Method
     Boundary Conditions: Vacuum-Slab-Metal
     total charge in unit cell        =   0.0000
     grid points for fit at edges     =        4

     >>>>> Grand-Canonical SCF is activated <<<<<
     Initial Total Charge  =     0.000000 e
     Target Fermi Energy   =    -5.030000 eV
     Thr. of Fermi Energy  =     0.010000 eV
     Wave-shift of Kerker  =     0.400000 bohr^-1
     Wave-shift of Hartree =     1.500000 bohr^-1
     Mixing Rate of Fermi  =     0.050000

     celldm(1)=   9.739563  celldm(2)=   0.000000  celldm(3)=   0.000000
     celldm(4)=   0.000000  celldm(5)=   0.000000  celldm(6)=   0.000000

     crystal axes: (cart. coord. in units of alat)
               a(1) = (   1.000000   0.000000   0.000000 )
               a(2) = (   0.500000   0.866025   0.000000 )
               a(3) = (   0.000000   0.000000   5.820773 )

     reciprocal axes: (cart. coord. in units 2 pi/alat)
               b(1) = (  1.000000 -0.577350  0.000000 )
               b(2) = (  0.000000  1.154701  0.000000 )
               b(3) = (  0.000000  0.000000  0.171798 )

     PseudoPot. # 1 for Cu read from file:
     ../../../pseudo/cu_pbe_v1.2.uspp.F.UPF
     MD5 check sum: 6e991ff952a84172a2a52a1c1e996048
     Pseudo is Ultrasoft + core correction, Zval = 19.0
     Generated by new atomic code, or converted to UPF format
     Using radial grid of  867 points,  6 beta functions with:
                l(1) =   0
                l(2) =   0
                l(3) =   1
                l(4) =   1
                l(5) =   2
                l(6) =   2
     Q(r) pseudized with  8 coefficients,  rinner =    1.150   1.150   1.150
                                                       1.150   1.150

     atomic species   valence    mass     pseudopotential
     Cu               19.00    63.54600     Cu( 1.00)

     No symmetry found

   Cartesian axes

     site n.     atom                  positions (alat units)
         1        Cu     tau(   1) = (   0.0000000   0.0000000  -0.4043952  )
         2        Cu     tau(   2) = (   0.5000000   0.2886751   0.0038531  )
         3        Cu     tau(   3) = (   0.2494813   0.1438951   0.4046548  )
         4        Cu     tau(   4) = (   0.2500000   0.4330127  -0.4043952  )
         5        Cu     tau(   5) = (   0.7500000   0.7216878   0.0038531  )
         6        Cu     tau(   6) = (   0.4995199   0.5769009   0.4047081  )
         7        Cu     tau(   7) = (   0.5000000   0.0000000  -0.4043952  )
         8        Cu     tau(   8) = (   1.0000000   0.2886751   0.0038531  )
         9        Cu     tau(   9) = (   0.7494475   0.1438808   0.4047696  )
        10        Cu     tau(  10) = (   0.7500000   0.4330127  -0.4043952  )
        11        Cu     tau(  11) = (   1.2500000   0.7216878   0.0038531  )
        12        Cu     tau(  12) = (   0.9994872   0.5768887   0.4048458  )

     number of k points=     8  Gaussian smearing, width (Ry)=  0.0100
                       cart. coord. in units 2pi/alat
        k(    1) = (   0.1250000   0.0721688   0.0000000), wk =   0.2500000
        k(    2) = (   0.1250000   0.3608439   0.0000000), wk =   0.2500000
        k(    3) = (   0.1250000  -0.5051815   0.0000000), wk =   0.2500000
        k(    4) = (   0.1250000  -0.2165064   0.0000000), wk =   0.2500000
        k(    5) = (   0.3750000  -0.0721688   0.0000000), wk =   0.2500000
        k(    6) = (   0.3750000   0.2165064   0.0000000), wk =   0.2500000
        k(    7) = (   0.3750000  -0.6495191   0.0000000), wk =   0.2500000
        k(    8) = (   0.3750000  -0.3608439   0.0000000), wk =   0.2500000

     Initial potential from superposition of free atoms

     starting charge     216.0000, renormalised to     228.0000

     negative rho (up, down):  4.189E-03 0.000E+00
     Starting wfcs are  156 randomized atomic wfcs

     Self-consistent Calculation

     iteration #  1     ecut=    40.00 Ry     beta= 0.10
     Davidson diagonalization with overlap
     c_bands:  1 eigenvalues not converged
     c_bands:  1 eigenvalues not converged
     c_bands:  1 eigenvalues not converged
     c_bands:  2 eigenvalues not converged
     c_bands:  1 eigenvalues not converged
     c_bands:  2 eigenvalues not converged
     ethr =  1.00E-05,  avg # of iterations =175.5

     negative rho (up, down):  4.744E-05 0.000E+00

     total energy              =   -4827.62699457 Ry
     estimated scf accuracy    <     102.26889153 Ry

     total charge of GC-SCF    =       0.10316226 e
     the Fermi energy          =       2.05772137 eV
                        (error :       7.08772137 eV)

     iteration #  2     ecut=    40.00 Ry     beta= 0.10
     Davidson diagonalization with overlap
     ethr =  1.00E-05,  avg # of iterations = 82.4

[...]

     iteration #  5     ecut=    40.00 Ry     beta= 0.10
     Davidson diagonalization with overlap
     c_bands:  2 eigenvalues not converged
     c_bands:  1 eigenvalues not converged
     ethr =  1.00E-05,  avg # of iterations = 99.6

[...]

     iteration # 24     ecut=    40.00 Ry     beta= 0.10
     Davidson diagonalization with overlap
     c_bands:  3 eigenvalues not converged
     ethr =  1.09E-09,  avg # of iterations =115.4

[...]

     iteration # 25     ecut=    40.00 Ry     beta= 0.10
     Davidson diagonalization with overlap
     c_bands:  1 eigenvalues not converged
     ethr =  1.09E-09,  avg # of iterations = 87.4

[...]

     End of self-consistent calculation

          k = 0.1250 0.0722 0.0000 ( 19861 PWs)   bands (ev):

  -117.5092-117.5016-117.5012-117.5012-117.2437-117.2363-117.2358-117.2356
  -117.2178-117.2102-117.2099-117.2099 -74.9361 -74.9360 -74.9333 -74.9101
   -74.8999 -74.8996 -74.8996 -74.8814 -74.8814 -74.8805 -74.8631 -74.8628
   -74.6920 -74.6920 -74.6802 -74.6683 -74.6683 -74.6565 -74.6406 -74.6323
   -74.6323 -74.6231 -74.6166 -74.6122 -74.6084 -74.6084 -74.6023 -74.5992
   -74.5958 -74.5953 -74.5950 -74.5882 -74.5728 -74.5660 -74.5657 -74.5657
   -13.4484 -11.4747  -9.9913  -9.7659  -9.6235  -9.6234  -9.4372  -9.3949
    -9.3948  -9.0576  -9.0218  -9.0217  -8.9140  -8.9115  -8.9115  -8.3389
    -8.3387  -8.3284  -7.9786  -7.9553  -7.9518  -7.9514  -7.9139  -7.8624
    -7.8565  -7.7691  -7.7690  -7.6976  -7.6670  -7.6624  -7.5724  -7.5367
    -7.5108  -7.5040  -7.5036  -7.1166  -7.1164  -7.0889  -7.0877  -7.0803
    -7.0156  -7.0112  -7.0111  -6.9423  -6.7758  -6.6937  -6.6806  -6.6806
    -6.6534  -6.6190  -6.6065  -6.6065  -6.5792  -6.5790  -6.5611  -6.5502
    -6.4555  -6.4554  -6.3755  -6.3755  -6.3677  -6.3426  -6.2292  -5.7517
    -5.0117  -5.0112  -4.7525  -4.6761  -3.9741  -3.9736  -2.9820  -2.9809
    -2.7255  -0.7626  -0.5074  -0.4686  -0.4214  -0.4200  -0.3700   0.1485
     0.3955   0.3956   0.4294   0.5710   1.4302   1.6660   1.7531   1.7538
     1.7880

[...]

     the Fermi energy is    -5.0252 ev

!    total energy              =   -4845.10110458 Ry
     estimated scf accuracy    <       0.00000058 Ry

!    total charge of GC-SCF    =       0.00356806 e
     smearing contrib. (-TS)   =      -0.00788178 Ry
     internal energy E=F+TS    =   -4845.09322280 Ry

     The total energy is F=E-TS. E is the sum of the following terms:
     one-electron contribution = -423907.45816001 Ry
     hartree contribution      =  211916.78228416 Ry
     xc contribution           =    -465.29154275 Ry
     ewald contribution        =  207610.87551490 Ry
     pot.stat. contrib. (-muN) =      -0.00131911 Ry

     convergence has been achieved in  25 iterations

[...]

     Forces acting on atoms (cartesian axes, Ry/au):

     atom    1 type  1   force =     0.00015773    0.00007206    0.00691454
     atom    2 type  1   force =    -0.00007742   -0.00009040   -0.00209394
     atom    3 type  1   force =    -0.00005951   -0.00001476    0.00392327
     atom    4 type  1   force =     0.00016100    0.00009359    0.00691517
     atom    5 type  1   force =    -0.00007526   -0.00009790   -0.00206808
     atom    6 type  1   force =    -0.00010106    0.00001419    0.00389026
     atom    7 type  1   force =     0.00013898    0.00007758    0.00692457
     atom    8 type  1   force =    -0.00011525   -0.00005208   -0.00205393
     atom    9 type  1   force =    -0.00001201   -0.00002518    0.00381569
     atom   10 type  1   force =     0.00015599    0.00010598    0.00691559
     atom   11 type  1   force =    -0.00011666   -0.00008434   -0.00203721
     atom   12 type  1   force =    -0.00005652    0.00000126    0.00374691

     Total force =     0.007690     Total SCF correction =     0.018905
     SCF correction compared to forces is large: reduce conv_thr to get better values

     BFGS Geometry Optimization
     Energy error            =      3.3E-05 Ry
     Gradient error          =      3.9E-03 Ry/Bohr

     number of scf cycles    =   1
     number of bfgs steps    =   0

     energy             new  =   -4845.1011045799 Ry

     new trust radius        =       0.0039237463 bohr
     new conv_thr            =       0.0000010000 Ry

ATOMIC_POSITIONS (angstrom)
Cu               0.0000000000        0.0000000000       -2.0842344718    0   0   0
Cu               2.5769773314        1.4878185560        0.0198587084    0   0   0
Cu               1.2857837666        0.7416207757        2.0876487428
Cu               1.2884886657        2.2317278340       -2.0842344718    0   0   0
Cu               3.8654659971        3.7195463900        0.0198587084    0   0   0
Cu               2.5744494976        2.9733285172        2.0879058867
Cu               2.5769773314        0.0000000000       -2.0842344718    0   0   0
Cu               5.1539546628        1.4878185560        0.0198587084    0   0   0
Cu               3.8626120136        0.7415417625        2.0881835591
Cu               3.8654659971        2.2317278340       -2.0842344718    0   0   0
Cu               6.4424433285        3.7195463900        0.0198587084    0   0   0
Cu               5.1512817552        2.9732590311        2.0885396594

     Writing config-only to output data dir ./output/opt.save/ :
     XML data file
     NEW-OLD atomic charge density approx. for the potential

[...]

     Threshold (ethr) on eigenvalues was too large:
     Diagonalizing with lowered threshold

     Davidson diagonalization with overlap
     ethr =  9.79E-08,  avg # of iterations = 34.6

[...]

     Total force =     0.039058     Total SCF correction =     0.078712
     SCF correction compared to forces is large: reduce conv_thr to get better values
     Energy error            =      1.1E-04 Ry
     Gradient error          =      2.0E-02 Ry/Bohr

[...]

     energy             old  =   -4845.1011045799 Ry
     energy             new  =   -4845.1009989066 Ry

     CASE: energy            _new > energy            _old

[...]

     new trust radius        =       0.0000060219 bohr

     trust_radius < trust_radius_min

     resetting bfgs history

     new conv_thr            =       0.0000010000 Ry

[...]

     new trust radius        =       0.0000352871 bohr

     trust_radius < trust_radius_min

     resetting bfgs history

     new conv_thr            =       0.0000010000 Ry

[...]

     Threshold (ethr) on eigenvalues was too large:
     Diagonalizing with lowered threshold

     Davidson diagonalization with overlap
     ethr =  4.66E-08,  avg # of iterations = 30.1

[...]

     number of scf cycles    =  19
     number of bfgs steps    =   1

     energy             old  =   -4845.1011045799 Ry
     energy             new  =   -4845.1010914089 Ry

     CASE: energy            _new > energy            _old

     new trust radius        =       0.0001194049 bohr
     new conv_thr            =       0.0000010000 Ry

ATOMIC_POSITIONS (angstrom)
Cu               0.0000000000        0.0000000000       -2.0842344718    0   0   0
Cu               2.5769773314        1.4878185560        0.0198587084    0   0   0
Cu               1.2858142980        0.7416283499        2.0856358177
Cu               1.2884886657        2.2317278340       -2.0842344718    0   0   0
Cu               3.8654659971        3.7195463900        0.0198587084    0   0   0
Cu               2.5745013478        2.9733212353        2.0859098986
Cu               2.5769773314        0.0000000000       -2.0842344718    0   0   0
Cu               5.1539546628        1.4878185560        0.0198587084    0   0   0
Cu               3.8626181778        0.7415546812        2.0862258301
Cu               3.8654659971        2.2317278340       -2.0842344718    0   0   0
Cu               6.4424433285        3.7195463900        0.0198587084    0   0   0
Cu               5.1513107520        2.9732583849        2.0866172185

     Writing config-only to output data dir ./output/opt.save/ :
     XML data file
     NEW-OLD atomic charge density approx. for the potential

[...]

     Self-consistent Calculation

[...]

     total energy              =   -4845.10111124 Ry
     estimated scf accuracy    <       0.00000272 Ry

     total charge of GC-SCF    =       0.00314603 e
     the Fermi energy          =      -5.03402526 eV
                        (error :       0.00402526 eV)

     iteration #  5     ecut=    40.00 Ry     beta= 0.10
     Davidson diagonalization with overlap
     ethr =  1.19E-09,  avg # of iterations = 46.0

[...]

     End of self-consistent calculation

[...]

          k = 0.3750-0.3608 0.0000 ( 19917 PWs)   bands (ev):

  -117.5057-117.5041-117.5018-117.5002-117.2406-117.2390-117.2368-117.2352
  -117.2138-117.2122-117.2100-117.2084 -74.9226 -74.9192 -74.9069 -74.9053
   -74.9032 -74.9015 -74.9002 -74.8980 -74.8933 -74.8866 -74.8732 -74.8686
   -74.6729 -74.6724 -74.6630 -74.6589 -74.6523 -74.6479 -74.6479 -74.6411
   -74.6382 -74.6341 -74.6275 -74.6258 -74.6188 -74.6163 -74.6009 -74.5995
   -74.5980 -74.5962 -74.5947 -74.5938 -74.5693 -74.5679 -74.5659 -74.5645
   -12.0562 -11.2450 -10.2647  -9.9472  -9.7513  -9.2192  -9.1317  -9.0689
    -8.9785  -8.9279  -8.7494  -8.7374  -8.5750  -8.5384  -8.4955  -8.3785
    -8.3544  -8.3447  -8.2567  -8.2555  -8.1459  -8.1452  -7.9565  -7.9528
    -7.8555  -7.8246  -7.7559  -7.7374  -7.7320  -7.7183  -7.7131  -7.6709
    -7.6526  -7.5858  -7.5667  -7.5287  -7.5226  -7.5041  -7.4630  -7.4410
    -7.3833  -7.2191  -7.2077  -7.1545  -7.1016  -7.0886  -7.0665  -7.0382
    -7.0061  -6.9678  -6.8821  -6.8439  -6.8420  -6.7736  -6.7631  -6.7174
    -6.6625  -6.6028  -6.5658  -6.5616  -6.5525  -6.5001  -6.4985  -6.4336
    -5.8361  -5.0565  -4.9519  -4.2643  -3.8619  -2.6346  -2.5621  -2.5106
    -1.4538  -0.7093   0.4612   0.5308   0.5479   0.9686   1.0880   1.3935
     1.4455   1.6960   1.7657   1.8633   1.9100   2.0222   2.4831   2.6379
     2.7577

     the Fermi energy is    -5.0248 ev

!    total energy              =   -4845.10107488 Ry
     estimated scf accuracy    <       0.00000090 Ry

!    total charge of GC-SCF    =       0.00629149 e
     smearing contrib. (-TS)   =      -0.00788962 Ry
     internal energy E=F+TS    =   -4845.09318525 Ry

     The total energy is F=E-TS. E is the sum of the following terms:
     one-electron contribution = -423901.53300542 Ry
     hartree contribution      =  211911.37096242 Ry
     xc contribution           =    -465.28845381 Ry
     ewald contribution        =  207610.35963750 Ry
     pot.stat. contrib. (-muN) =      -0.00232595 Ry

     convergence has been achieved in   5 iterations

     negative rho (up, down):  1.540E-03 0.000E+00

     Forces acting on atoms (cartesian axes, Ry/au):

     atom    1 type  1   force =     0.00025078    0.00014313    0.01066883
     atom    2 type  1   force =    -0.00007003   -0.00007461   -0.00374438
     atom    3 type  1   force =    -0.00017556   -0.00007460    0.00066684
     atom    4 type  1   force =     0.00025020    0.00013950    0.01066895
     atom    5 type  1   force =    -0.00005957   -0.00009029   -0.00372301
     atom    6 type  1   force =    -0.00021614   -0.00005748    0.00060543
     atom    7 type  1   force =     0.00024549    0.00014532    0.01067287
     atom    8 type  1   force =    -0.00010292   -0.00005809   -0.00370356
     atom    9 type  1   force =    -0.00011110   -0.00007935    0.00052914
     atom   10 type  1   force =     0.00024782    0.00014037    0.01067286
     atom   11 type  1   force =    -0.00009702   -0.00007511   -0.00369064
     atom   12 type  1   force =    -0.00016195   -0.00005880    0.00044137

     Total force =     0.001192     Total SCF correction =     0.001327
     SCF correction compared to forces is large: reduce conv_thr to get better values
     Energy error            =      3.0E-05 Ry
     Gradient error          =      6.7E-04 Ry/Bohr

     bfgs converged in  20 scf cycles and   1 bfgs steps
     (criteria: energy <  1.0E-04 Ry, force <  1.0E-03 Ry/Bohr)

     End of BFGS Geometry Optimization

     Final energy             =   -4845.1010748762 Ry

     File ./output/opt.bfgs deleted, as requested
Begin final coordinates

ATOMIC_POSITIONS (angstrom)
Cu               0.0000000000        0.0000000000       -2.0842344718    0   0   0
Cu               2.5769773314        1.4878185560        0.0198587084    0   0   0
Cu               1.2858142980        0.7416283499        2.0856358177
Cu               1.2884886657        2.2317278340       -2.0842344718    0   0   0
Cu               3.8654659971        3.7195463900        0.0198587084    0   0   0
Cu               2.5745013478        2.9733212353        2.0859098986
Cu               2.5769773314        0.0000000000       -2.0842344718    0   0   0
Cu               5.1539546628        1.4878185560        0.0198587084    0   0   0
Cu               3.8626181778        0.7415546812        2.0862258301
Cu               3.8654659971        2.2317278340       -2.0842344718    0   0   0
Cu               6.4424433285        3.7195463900        0.0198587084    0   0   0
Cu               5.1513107520        2.9732583849        2.0866172185
End final coordinates

     Writing all to output data dir ./output/opt.save/ :
     XML data file, charge density, pseudopotentials, collected wavefunctions

     General routines

     Parallel routines

   This run was terminated on:  10:15:33  10Jun2024

   JOB DONE.