     Program PWSCF v.7.3.1 starts on 10Jun2024 at  9:42:10

     Reading input from scf.in
Warning: card &RISM ignored
Warning: card    NSOLV            = 3 ignored
Warning: card    CLOSURE          = 'KH' ignored
Warning: card    TEMPV            = 300.0 ignored
Warning: card    ECUTSOLV         = 160.0 ignored
Warning: card    SOLUTE_LJ(1)     = 'NONE' ignored
Warning: card    SOLUTE_EPSILON(1) = 0.005 ignored
Warning: card    SOLUTE_SIGMA(1)  = 3.11369102 ignored
Warning: card    STARTING1D       = 'ZERO' ignored
Warning: card    STARTING3D       = 'ZERO' ignored
Warning: card    RISM1D_MAXSTEP   = 15000 ignored
Warning: card    RISM3D_MAXSTEP   = 15000 ignored
Warning: card    RISM1D_CONV_THR  = 1E-08 ignored
Warning: card    RISM3D_CONV_THR  = 1E-06 ignored
Warning: card    MDIIS1D_SIZE     = 20 ignored
Warning: card    MDIIS3D_SIZE     = 20 ignored
Warning: card    MDIIS1D_STEP     = 0.2 ignored
Warning: card    MDIIS3D_STEP     = 0.1 ignored
Warning: card    RISM3D_CONV_LEVEL = 0.7 ignored
Warning: card    LAUE_EXPAND_RIGHT = 60 ignored
Warning: card    LAUE_BUFFER_RIGHT = 4.0 ignored
Warning: card / ignored
Warning: card SOLVENTS {MOL/L} ignored
Warning: card H2O -1.0 H2O.TIP5P.NISHIHARA.MOL ignored
Warning: card K+   1.0 K+.HAGIWARA.MOL ignored
Warning: card OH-  1.0 OH-.OPLSAA.MOL ignored

     Current dimensions of program PWSCF are:
     Max number of different atomic species (ntypx) = 10
     Max number of k-points (npk) =  40000
     Max angular momentum in pseudopotentials (lmaxx) =  4

     R & G space division:  proc/nbgrp/npool/nimage =      32
     Subspace diagonalization in iterative solution of the eigenvalue problem:
     a serial algorithm will be used

     Using Slab Decomposition

     bravais-lattice index     =            0
     lattice parameter (alat)  =       9.7396  a.u.
     unit-cell volume          =    4657.2513 (a.u.)^3
     number of atoms/cell      =           12
     number of atomic types    =            1
     number of electrons       =       228.00
     number of Kohn-Sham states=          137
     kinetic-energy cutoff     =      40.0000  Ry
     charge density cutoff     =     320.0000  Ry
     scf convergence threshold =      1.0E-06
     mixing beta               =       0.1000
     number of iterations used =            8  plain     mixing
     energy convergence thresh.=      1.0E-04
     force convergence thresh. =      1.0E-03
     Exchange-correlation= SLA  PW   PBE  PBE
                           (   1   4   3   4   0   0   0)
     nstep                     =           50

     Effective Screening Medium Method
     Boundary Conditions: Vacuum-Slab-Metal
     total charge in unit cell        =   0.0000
     grid points for fit at edges     =        4

     >>>> FCP Relaxation is activated <<<<<
     Initial Total Charge =     0.000000 e
     Target Fermi Energy  =    -0.369698 Ry
                          =    -5.030000 eV

     celldm(1)=   9.739563  celldm(2)=   0.000000  celldm(3)=   0.000000
     celldm(4)=   0.000000  celldm(5)=   0.000000  celldm(6)=   0.000000

     crystal axes: (cart. coord. in units of alat)
               a(1) = (   1.000000   0.000000   0.000000 )
               a(2) = (   0.500000   0.866025   0.000000 )
               a(3) = (   0.000000   0.000000   5.820773 )

     reciprocal axes: (cart. coord. in units 2 pi/alat)
               b(1) = (  1.000000 -0.577350  0.000000 )
               b(2) = (  0.000000  1.154701  0.000000 )
               b(3) = (  0.000000  0.000000  0.171798 )

     PseudoPot. # 1 for Cu read from file:
     ../../../pseudo/cu_pbe_v1.2.uspp.F.UPF
     MD5 check sum: 6e991ff952a84172a2a52a1c1e996048
     Pseudo is Ultrasoft + core correction, Zval = 19.0
     Generated by new atomic code, or converted to UPF format
     Using radial grid of  867 points,  6 beta functions with:
                l(1) =   0
                l(2) =   0
                l(3) =   1
                l(4) =   1
                l(5) =   2
                l(6) =   2
     Q(r) pseudized with  8 coefficients,  rinner =    1.150   1.150   1.150
                                                       1.150   1.150

     atomic species   valence    mass     pseudopotential
     Cu               19.00    63.54600     Cu( 1.00)

     No symmetry found

   Cartesian axes

     site n.     atom                  positions (alat units)
         1        Cu     tau(   1) = (   0.0000000   0.0000000  -0.4043952  )
         2        Cu     tau(   2) = (   0.5000000   0.2886751   0.0038531  )
         3        Cu     tau(   3) = (   0.2494813   0.1438951   0.4046548  )
         4        Cu     tau(   4) = (   0.2500000   0.4330127  -0.4043952  )
         5        Cu     tau(   5) = (   0.7500000   0.7216878   0.0038531  )
         6        Cu     tau(   6) = (   0.4995199   0.5769009   0.4047081  )
         7        Cu     tau(   7) = (   0.5000000   0.0000000  -0.4043952  )
         8        Cu     tau(   8) = (   1.0000000   0.2886751   0.0038531  )
         9        Cu     tau(   9) = (   0.7494475   0.1438808   0.4047696  )
        10        Cu     tau(  10) = (   0.7500000   0.4330127  -0.4043952  )
        11        Cu     tau(  11) = (   1.2500000   0.7216878   0.0038531  )
        12        Cu     tau(  12) = (   0.9994872   0.5768887   0.4048458  )

     number of k points=     8  Gaussian smearing, width (Ry)=  0.0100
                       cart. coord. in units 2pi/alat
        k(    1) = (   0.1250000   0.0721688   0.0000000), wk =   0.2500000
        k(    2) = (   0.1250000   0.3608439   0.0000000), wk =   0.2500000
        k(    3) = (   0.1250000  -0.5051815   0.0000000), wk =   0.2500000
        k(    4) = (   0.1250000  -0.2165064   0.0000000), wk =   0.2500000
        k(    5) = (   0.3750000  -0.0721688   0.0000000), wk =   0.2500000
        k(    6) = (   0.3750000   0.2165064   0.0000000), wk =   0.2500000
        k(    7) = (   0.3750000  -0.6495191   0.0000000), wk =   0.2500000
        k(    8) = (   0.3750000  -0.3608439   0.0000000), wk =   0.2500000

     Initial potential from superposition of free atoms

     starting charge     216.0000, renormalised to     228.0000

     negative rho (up, down):  4.189E-03 0.000E+00
     Starting wfcs are  156 randomized atomic wfcs

     Self-consistent Calculation

     iteration #  1     ecut=    40.00 Ry     beta= 0.10
     Davidson diagonalization with overlap
     ethr =  1.00E-02,  avg # of iterations =  6.5

     negative rho (up, down):  2.096E-03 0.000E+00

     total energy              =   -4843.91466072 Ry
     estimated scf accuracy    <      69.28537048 Ry

[...]

     iteration #  6     ecut=    40.00 Ry     beta= 0.10
     Davidson diagonalization with overlap
     c_bands:  3 eigenvalues not converged
     c_bands:  4 eigenvalues not converged
     c_bands:  5 eigenvalues not converged
     c_bands:  4 eigenvalues not converged
     c_bands:  4 eigenvalues not converged
     c_bands:  4 eigenvalues not converged
     c_bands:  4 eigenvalues not converged
     c_bands:  3 eigenvalues not converged
     ethr =  2.19E-04,  avg # of iterations = 20.0

[...]

     End of self-consistent calculation

          k = 0.1250 0.0722 0.0000 ( 19861 PWs)   bands (ev):

  -117.2168-117.2091-117.2088-117.2088-116.9516-116.9442-116.9437-116.9435
  -116.9261-116.9185-116.9182-116.9182 -74.6438 -74.6438 -74.6408 -74.6176
   -74.6074 -74.6070 -74.6070 -74.5889 -74.5889 -74.5884 -74.5706 -74.5705
   -74.3998 -74.3997 -74.3880 -74.3764 -74.3763 -74.3646 -74.3483 -74.3401
   -74.3401 -74.3309 -74.3247 -74.3200 -74.3165 -74.3165 -74.3106 -74.3073
   -74.3041 -74.3037 -74.3034 -74.2963 -74.2813 -74.2745 -74.2742 -74.2742
   -13.1561 -11.1830  -9.6992  -9.4736  -9.3312  -9.3311  -9.1448  -9.1026
    -9.1026  -8.7654  -8.7296  -8.7295  -8.6219  -8.6194  -8.6194  -8.0470
    -8.0468  -8.0365  -7.6864  -7.6632  -7.6596  -7.6592  -7.6216  -7.5703
    -7.5641  -7.4768  -7.4767  -7.4054  -7.3749  -7.3702  -7.2803  -7.2448
    -7.2187  -7.2120  -7.2117  -6.8247  -6.8245  -6.7969  -6.7956  -6.7881
    -6.7238  -6.7193  -6.7193  -6.6512  -6.4839  -6.4022  -6.3884  -6.3884
    -6.3612  -6.3272  -6.3145  -6.3145  -6.2872  -6.2871  -6.2689  -6.2582
    -6.1633  -6.1633  -6.0834  -6.0834  -6.0755  -6.0506  -5.9398  -5.4597
    -4.7196  -4.7191  -4.4654  -4.3844  -3.6823  -3.6817  -2.6899  -2.6888
    -2.4339  -0.4958  -0.2372  -0.1447  -0.1299  -0.1286  -0.0789   0.4524
     0.6846   0.6848   0.7141   0.8607   1.7148   1.9760   2.0418   2.0425
     2.0750

[...]

     the Fermi energy is    -4.7334 ev

!    total energy              =   -4845.10106943 Ry
     estimated scf accuracy    <       0.00000065 Ry
     smearing contrib. (-TS)   =      -0.00789808 Ry
     internal energy E=F+TS    =   -4845.09317135 Ry

     The total energy is F=E-TS. E is the sum of the following terms:
     one-electron contribution = -423912.13737850 Ry
     hartree contribution      =  211921.46044624 Ry
     xc contribution           =    -465.29175400 Ry
     ewald contribution        =  207610.87551490 Ry
     pot.stat. contrib. (-muN) =       0.00000000 Ry

     convergence has been achieved in  18 iterations

[...]

     Forces acting on atoms (cartesian axes, Ry/au):

     atom    1 type  1   force =     0.00046764    0.00007790    0.00627501
     atom    2 type  1   force =    -0.00000149    0.00001002   -0.00682906
     atom    3 type  1   force =    -0.00025538   -0.00000113    0.00114989
     atom    4 type  1   force =     0.00018586    0.00006329    0.00616872
     atom    5 type  1   force =    -0.00007515   -0.00000304   -0.00683953
     atom    6 type  1   force =    -0.00024131   -0.00009066    0.00113172
     atom    7 type  1   force =    -0.00003986    0.00001064    0.00639644
     atom    8 type  1   force =    -0.00019188   -0.00027248   -0.00656267
     atom    9 type  1   force =    -0.00002482   -0.00013532    0.00104552
     atom   10 type  1   force =     0.00024170    0.00026343    0.00627479
     atom   11 type  1   force =     0.00000714    0.00009234   -0.00666521
     atom   12 type  1   force =    -0.00007245   -0.00001498    0.00110158

     Total force =     0.002251     Total SCF correction =     0.005237
     SCF correction compared to forces is large: reduce conv_thr to get better values

     BFGS Geometry Optimization
     Energy error            =      4.7E-06 Ry
     Gradient error          =      1.1E-03 Ry/Bohr
     FCP gradient error      =      2.2E-02

     number of scf cycles    =   1
     number of bfgs steps    =   0

     grand-energy       new  =   -4845.1010694335 Ry

     new trust radius        =       0.1090001847 bohr
     new conv_thr            =       0.0000010000 Ry

ATOMIC_POSITIONS (angstrom)
Cu               0.0000000000        0.0000000000       -2.0842344718    0   0   0
Cu               2.5769773314        1.4878185560        0.0198587084    0   0   0
Cu               1.2856801132        0.7416279918        2.0861811343
Cu               1.2884886657        2.2317278340       -2.0842344718    0   0   0
Cu               3.8654659971        3.7195463900        0.0198587084    0   0   0
Cu               2.5743752788        2.9732730301        2.0864461315
Cu               2.5769773314        0.0000000000       -2.0842344718    0   0   0
Cu               5.1539546628        1.4878185560        0.0198587084    0   0   0
Cu               3.8626052395        0.7414834787        2.0867176509
Cu               3.8654659971        2.2317278340       -2.0842344718    0   0   0
Cu               6.4424433285        3.7195463900        0.0198587084    0   0   0
Cu               5.1512733235        2.9732504357        2.0871398088

     FCP: Total Charge =     0.000000  ->     0.002514
     FCP: Fermi Energy =    -0.347898 Ry (   -4.733395 eV)
     FCP: Target Level =    -0.369698 Ry (   -5.030000 eV)
     FCP: Force on FCP =    -0.021800 Ry (   -0.296605 eV)
     FCP: Force Thr.   =     0.000735 Ry (    0.010000 eV)

     Writing config-only to output data dir ./output/opt.save/ :
     XML data file
     NEW-OLD atomic charge density approx. for the potential

     negative rho (up, down):  1.536E-03 0.000E+00
     extrapolated charge  228.00000, renormalised to  227.99749

[...]

     Threshold (ethr) on eigenvalues was too large:
     Diagonalizing with lowered threshold

     Davidson diagonalization with overlap
     ethr =  3.58E-08,  avg # of iterations =  5.0

[...]

     Total force =     0.006191     Total SCF correction =     0.007746
     SCF correction compared to forces is large: reduce conv_thr to get better values
     Energy error            =      3.2E-05 Ry
     Gradient error          =      3.2E-03 Ry/Bohr
     FCP gradient error      =      5.2E-03

[...]

     grand-energy       old  =   -4845.1010694335 Ry
     grand-energy       new  =   -4845.1011018318 Ry

[...]

     iteration #  3     ecut=    40.00 Ry     beta= 0.10
     Davidson diagonalization with overlap
     c_bands:  1 eigenvalues not converged
     ethr =  1.08E-07,  avg # of iterations =  6.5

[...]

     negative rho (up, down):  1.540E-03 0.000E+00
     extrapolated charge  227.99688, renormalised to  227.99667

[...]

     number of scf cycles    =   7
     number of bfgs steps    =   6

     grand-energy       old  =   -4845.1011095814 Ry
     grand-energy       new  =   -4845.1011086978 Ry

     new trust radius        =       0.0002786804 bohr
     new conv_thr            =       0.0000010000 Ry

ATOMIC_POSITIONS (angstrom)
Cu               0.0000000000        0.0000000000       -2.0842344718    0   0   0
Cu               2.5769773314        1.4878185560        0.0198587084    0   0   0
Cu               1.2855425960        0.7415282406        2.0853549775
Cu               1.2884886657        2.2317278340       -2.0842344718    0   0   0
Cu               3.8654659971        3.7195463900        0.0198587084    0   0   0
Cu               2.5742281354        2.9731980421        2.0855595420
Cu               2.5769773314        0.0000000000       -2.0842344718    0   0   0
Cu               5.1539546628        1.4878185560        0.0198587084    0   0   0
Cu               3.8624190063        0.7414212833        2.0857975759
Cu               3.8654659971        2.2317278340       -2.0842344718    0   0   0
Cu               6.4424433285        3.7195463900        0.0198587084    0   0   0
Cu               5.1510426273        2.9731938177        2.0861148643

     FCP: Total Charge =     0.003330  ->     0.003323
     FCP: Fermi Energy =    -0.369475 Ry (   -5.026965 eV)
     FCP: Target Level =    -0.369698 Ry (   -5.030000 eV)
     FCP: Force on FCP =    -0.000223 Ry (   -0.003035 eV)
     FCP: Force Thr.   =     0.000735 Ry (    0.010000 eV)

     Writing config-only to output data dir ./output/opt.save/ :
     XML data file
     NEW-OLD atomic charge density approx. for the potential

[...]

     Self-consistent Calculation

[...]

     Threshold (ethr) on eigenvalues was too large:
     Diagonalizing with lowered threshold

     Davidson diagonalization with overlap
     ethr =  4.23E-09,  avg # of iterations =  2.0

[...]

     total energy              =   -4845.10110954 Ry
     estimated scf accuracy    <       0.00000409 Ry

     iteration #  4     ecut=    40.00 Ry     beta= 0.10
     Davidson diagonalization with overlap
     ethr =  1.79E-09,  avg # of iterations =  1.0

[...]

     End of self-consistent calculation

[...]

          k = 0.3750-0.3608 0.0000 ( 19917 PWs)   bands (ev):

  -117.5114-117.5098-117.5076-117.5060-117.2456-117.2440-117.2418-117.2402
  -117.2200-117.2184-117.2162-117.2146 -74.9284 -74.9250 -74.9127 -74.9111
   -74.9090 -74.9072 -74.9060 -74.9039 -74.8990 -74.8923 -74.8790 -74.8744
   -74.6779 -74.6776 -74.6681 -74.6640 -74.6574 -74.6542 -74.6541 -74.6462
   -74.6445 -74.6404 -74.6338 -74.6309 -74.6238 -74.6226 -74.6071 -74.6046
   -74.6032 -74.6013 -74.6001 -74.5999 -74.5753 -74.5739 -74.5719 -74.5704
   -12.0631 -11.2518 -10.2709  -9.9539  -9.7576  -9.2255  -9.1379  -9.0754
    -8.9848  -8.9340  -8.7558  -8.7436  -8.5812  -8.5446  -8.5016  -8.3847
    -8.3606  -8.3510  -8.2628  -8.2615  -8.1519  -8.1511  -7.9623  -7.9587
    -7.8615  -7.8305  -7.7618  -7.7432  -7.7381  -7.7243  -7.7190  -7.6766
    -7.6583  -7.5916  -7.5725  -7.5345  -7.5285  -7.5099  -7.4689  -7.4470
    -7.3893  -7.2249  -7.2134  -7.1602  -7.1073  -7.0944  -7.0722  -7.0440
    -7.0118  -6.9736  -6.8878  -6.8496  -6.8477  -6.7793  -6.7688  -6.7232
    -6.6682  -6.6084  -6.5714  -6.5672  -6.5581  -6.5058  -6.5042  -6.4392
    -5.8420  -5.0623  -4.9573  -4.2698  -3.8681  -2.6401  -2.5673  -2.5165
    -1.4590  -0.7153   0.4551   0.5256   0.5456   0.9692   1.0890   1.3906
     1.4393   1.6954   1.7598   1.8643   1.9118   2.0224   2.4774   2.6394
     2.7636

     the Fermi energy is    -5.0305 ev

!    total energy              =   -4845.10110980 Ry
     estimated scf accuracy    <       0.00000013 Ry
     smearing contrib. (-TS)   =      -0.00788647 Ry
     internal energy E=F+TS    =   -4845.09322333 Ry

     The total energy is F=E-TS. E is the sum of the following terms:
     one-electron contribution = -423912.68324722 Ry
     hartree contribution      =  211919.26785313 Ry
     xc contribution           =    -465.29018845 Ry
     ewald contribution        =  207613.61358777 Ry
     pot.stat. contrib. (-muN) =      -0.00122855 Ry

     convergence has been achieved in   4 iterations

     negative rho (up, down):  1.540E-03 0.000E+00

     Forces acting on atoms (cartesian axes, Ry/au):

     atom    1 type  1   force =     0.00018176    0.00012627    0.00588199
     atom    2 type  1   force =    -0.00007645   -0.00010544   -0.00544766
     atom    3 type  1   force =     0.00004086   -0.00027016   -0.00095867
     atom    4 type  1   force =     0.00017756    0.00012529    0.00588434
     atom    5 type  1   force =    -0.00007190   -0.00012381   -0.00542540
     atom    6 type  1   force =    -0.00000931   -0.00017655   -0.00090235
     atom    7 type  1   force =     0.00020967    0.00010531    0.00590920
     atom    8 type  1   force =    -0.00017676   -0.00005964   -0.00552284
     atom    9 type  1   force =    -0.00016204    0.00024710   -0.00096693
     atom   10 type  1   force =     0.00021445    0.00011005    0.00591452
     atom   11 type  1   force =    -0.00016607   -0.00008040   -0.00552469
     atom   12 type  1   force =    -0.00016179    0.00010198   -0.00092128

     Total force =     0.001936     Total SCF correction =     0.002573
     SCF correction compared to forces is large: reduce conv_thr to get better values
     Energy error            =      1.1E-06 Ry
     Gradient error          =      9.7E-04 Ry/Bohr
     FCP gradient error      =      3.7E-05

     bfgs converged in   8 scf cycles and   7 bfgs steps
     (criteria: energy <  1.0E-04 Ry, force <  1.0E-03 Ry/Bohr)
     (criteria: force on FCP <  1.0E-02 eV)

     End of BFGS Geometry Optimization

     Final grand-energy       =   -4845.1011098041 Ry

     File ./output/opt.bfgs deleted, as requested
Begin final coordinates

ATOMIC_POSITIONS (angstrom)
Cu               0.0000000000        0.0000000000       -2.0842344718    0   0   0
Cu               2.5769773314        1.4878185560        0.0198587084    0   0   0
Cu               1.2855425960        0.7415282406        2.0853549775
Cu               1.2884886657        2.2317278340       -2.0842344718    0   0   0
Cu               3.8654659971        3.7195463900        0.0198587084    0   0   0
Cu               2.5742281354        2.9731980421        2.0855595420
Cu               2.5769773314        0.0000000000       -2.0842344718    0   0   0
Cu               5.1539546628        1.4878185560        0.0198587084    0   0   0
Cu               3.8624190063        0.7414212833        2.0857975759
Cu               3.8654659971        2.2317278340       -2.0842344718    0   0   0
Cu               6.4424433285        3.7195463900        0.0198587084    0   0   0
Cu               5.1510426273        2.9731938177        2.0861148643
End final coordinates

     FCP: Total Charge =     0.003323
     FCP: Fermi Energy =    -0.369735 Ry (   -5.030499 eV)
     FCP: Target Level =    -0.369698 Ry (   -5.030000 eV)
     FCP: Force on FCP =     0.000037 Ry (    0.000499 eV)
     FCP: Force Thr.   =     0.000735 Ry (    0.010000 eV)

     Writing all to output data dir ./output/opt.save/ :
     XML data file, charge density, pseudopotentials, collected wavefunctions

     General routines

     Parallel routines

   This run was terminated on:   9:45:47  10Jun2024

   JOB DONE.