     Program PWSCF v.7.3.1 starts on  9Jun2024 at 14:44:49

     Reading input from scf.in

     Current dimensions of program PWSCF are:
     Max number of different atomic species (ntypx) = 10
     Max number of k-points (npk) =  40000
     Max angular momentum in pseudopotentials (lmaxx) =  4
     Message from routine iosys_1drism:
     default density from MOL file(H2O.tip5p.Nishihara.MOL) is used
     Found identity + ( -0.0000 -0.5000  0.0000) symmetry
     This is a supercell, fractional translations are disabled

     R & G space division:  proc/nbgrp/npool/nimage =      32
     Subspace diagonalization in iterative solution of the eigenvalue problem:
     a serial algorithm will be used

     Molecule # 1 for H2O read from file:
     ../../../pseudo/H2O.tip5p.Nishihara.MOL
     Density:
         0.23069113E+02 cell^-1
         0.49533751E-02 bohr^-3
         0.55506881E+02 mol/L
         0.99997200E+00 g/cm^3
     Permittivity:
        78.500000
     Number of atoms:   5
     Atoms:
       #  atom      X (angs)      Y (angs)      Z (angs)      Q (e)         E (kcal/mol)  S (angs)
       1  O/h2o     0.00000000   -0.06556000    0.00000000    0.00000000    0.16000000    3.12000000
       2  H/h2o     0.75695000    0.52032000    0.00000000    0.24100000    0.04600000    1.00000000
       3  H/h2o    -0.75695000    0.52032000    0.00000000    0.24100000    0.04600000    1.00000000
       4  L/h2o     0.00000000   -0.46971000    0.57154000   -0.24100000    0.04600000    1.80000000
       5  L/h2o     0.00000000   -0.46971000   -0.57154000   -0.24100000    0.04600000    1.80000000

     Molecule # 2 for K+ read from file:
     ../../../pseudo/K+.Hagiwara.MOL
     Density:
         0.41560816E+00 cell^-1
         0.89238937E-04 bohr^-3
         0.10000000E+01 mol/L
         0.39098300E-01 g/cm^3
     Number of atoms:   1
     Atoms:
       #  atom      X (angs)      Y (angs)      Z (angs)      Q (e)         E (kcal/mol)  S (angs)
       1  K         0.00000000    0.00000000    0.00000000    1.00000000    0.00032800    4.93462800

     Molecule # 3 for OH- read from file:
     ../../../pseudo/OH-.oplsaa.MOL
     Density:
         0.41560816E+00 cell^-1
         0.89238937E-04 bohr^-3
         0.10000000E+01 mol/L
         0.17007340E-01 g/cm^3
     Number of atoms:   2
     Atoms:
       #  atom      X (angs)      Y (angs)      Z (angs)      Q (e)         E (kcal/mol)  S (angs)
       1  O/oh      0.00000000    0.00000000    0.00000000   -1.30000000    0.25000000    3.20000000
       2  H/oh      0.95300000    0.00000000    0.00000000    0.30000000    0.04600000    1.00000000

     1D-RISM info
     closure equation        =           KH
     temperature             =     300.0000  kelvin
     coulomb smearing radius =       2.0000  bohr
     number of solvent sites =            8
     number of grids         =         5973
     maximum of R-space      =     999.8326  bohr
     maximum of G-space      =      18.7632  bohr^-1
     number of iterations    =        15000
     convergence threshold   =      1.0E-08
     Gaussian width of bonds =       0.3162  bohr
     size of MDIIS           =           20
     step of MDIIS           =       0.2000
     number of processes     =           32

     1D-RISM Calculation

     iter. #     1  RMS(g-h-1)= 7.798E-04  nbox=  0  T= 2400.00K
     iter. #   101  RMS(g-h-1)= 1.222E-06  nbox= 20  T= 1600.00K
     iter. #   201  RMS(g-h-1)= 3.438E-06  nbox= 20  T=  711.11K
     iter. #   301  RMS(g-h-1)= 2.056E-06  nbox= 20  T=  474.07K
     iter. #   401  RMS(g-h-1)= 1.763E-06  nbox= 20  T=  316.05K
     iter. #   501  RMS(g-h-1)= 4.740E-07  nbox= 20  T=  300.00K
     iter. #   601  RMS(g-h-1)= 1.617E-07  nbox= 20  T=  300.00K
     iter. #   701  RMS(g-h-1)= 1.125E-07  nbox= 20  T=  300.00K
     iter. #   801  RMS(g-h-1)= 9.036E-08  nbox= 20  T=  300.00K
     iter. #   901  RMS(g-h-1)= 7.204E-08  nbox= 20  T=  300.00K
     iter. #  1001  RMS(g-h-1)= 6.153E-08  nbox= 20  T=  300.00K
     iter. #  1101  RMS(g-h-1)= 5.274E-08  nbox= 20  T=  300.00K
     iter. #  1201  RMS(g-h-1)= 4.770E-08  nbox= 20  T=  300.00K
     iter. #  1301  RMS(g-h-1)= 4.314E-08  nbox= 20  T=  300.00K
     iter. #  1401  RMS(g-h-1)= 3.804E-08  nbox= 20  T=  300.00K
     iter. #  1501  RMS(g-h-1)= 3.312E-08  nbox= 20  T=  300.00K
     iter. #  1601  RMS(g-h-1)= 3.206E-08  nbox= 20  T=  300.00K
     iter. #  1701  RMS(g-h-1)= 3.140E-08  nbox= 20  T=  300.00K
     iter. #  1801  RMS(g-h-1)= 3.483E-08  nbox= 20  T=  300.00K
     iter. #  1901  RMS(g-h-1)= 2.990E-08  nbox= 20  T=  300.00K
     iter. #  2001  RMS(g-h-1)= 2.992E-08  nbox= 20  T=  300.00K
     iter. #  2101  RMS(g-h-1)= 2.965E-08  nbox= 20  T=  300.00K
     iter. #  2201  RMS(g-h-1)= 2.932E-08  nbox= 20  T=  300.00K
     iter. #  2301  RMS(g-h-1)= 2.916E-08  nbox= 20  T=  300.00K
     iter. #  2401  RMS(g-h-1)= 2.777E-08  nbox= 20  T=  300.00K
     iter. #  2501  RMS(g-h-1)= 2.606E-08  nbox= 20  T=  300.00K
     iter. #  2601  RMS(g-h-1)= 2.513E-08  nbox= 20  T=  300.00K
     iter. #  2701  RMS(g-h-1)= 2.404E-08  nbox= 20  T=  300.00K
     iter. #  2801  RMS(g-h-1)= 2.218E-08  nbox= 20  T=  300.00K
     iter. #  2901  RMS(g-h-1)= 2.045E-08  nbox= 20  T=  300.00K
     iter. #  3001  RMS(g-h-1)= 1.956E-08  nbox= 20  T=  300.00K
     iter. #  3101  RMS(g-h-1)= 1.851E-08  nbox= 20  T=  300.00K
     iter. #  3201  RMS(g-h-1)= 1.779E-08  nbox= 20  T=  300.00K
     iter. #  3301  RMS(g-h-1)= 1.699E-08  nbox= 20  T=  300.00K
     iter. #  3401  RMS(g-h-1)= 1.616E-08  nbox= 20  T=  300.00K
     iter. #  3501  RMS(g-h-1)= 1.501E-08  nbox= 20  T=  300.00K
     iter. #  3601  RMS(g-h-1)= 1.424E-08  nbox= 20  T=  300.00K
     iter. #  3701  RMS(g-h-1)= 1.364E-08  nbox= 20  T=  300.00K
     iter. #  3801  RMS(g-h-1)= 1.271E-08  nbox= 20  T=  300.00K
     iter. #  3901  RMS(g-h-1)= 1.207E-08  nbox= 20  T=  300.00K
     iter. #  4001  RMS(g-h-1)= 1.162E-08  nbox= 20  T=  300.00K
     iter. #  4101  RMS(g-h-1)= 1.127E-08  nbox= 20  T=  300.00K
     iter. #  4201  RMS(g-h-1)= 1.082E-08  nbox= 20  T=  300.00K
     iter. #  4301  RMS(g-h-1)= 1.016E-08  nbox= 20  T=  300.00K
     iter. #  4327  RMS(g-h-1)= 9.990E-09  nbox= 20  T=  300.00K

     End of 1D-RISM calculation

     convergence has been achieved in  4327 iterations

     Chemical potential of solvation

     H2O        H2O        Closure      0.144028E+01 kcal/mol
                           GaussFluct  -0.702227E+01 kcal/mol

                K+         Closure     -0.280532E+00 kcal/mol
                           GaussFluct  -0.350073E+00 kcal/mol

                OH-        Closure     -0.749901E+00 kcal/mol
                           GaussFluct  -0.841435E+00 kcal/mol

                Total      Closure      0.409852E+00 kcal/mol
                           GaussFluct  -0.821378E+01 kcal/mol

     K+         H2O        Closure     -0.155715E+02 kcal/mol
                           GaussFluct  -0.194314E+02 kcal/mol

[...]

     OH-        H2O        Closure     -0.416246E+02 kcal/mol
                           GaussFluct  -0.467054E+02 kcal/mol

                K+         Closure     -0.351595E+06 kcal/mol
                           GaussFluct  -0.351595E+06 kcal/mol

                OH-        Closure      0.351544E+06 kcal/mol
                           GaussFluct   0.351544E+06 kcal/mol

                Total      Closure     -0.925530E+02 kcal/mol
                           GaussFluct  -0.977563E+02 kcal/mol

     Using Slab Decomposition

     bravais-lattice index     =            0
     lattice parameter (alat)  =       9.7396  a.u.
     unit-cell volume          =    4657.2513 (a.u.)^3
     number of atoms/cell      =           12
     number of atomic types    =            1
     number of electrons       =       228.00
     number of Kohn-Sham states=          137
     kinetic-energy cutoff     =      40.0000  Ry
     charge density cutoff     =     320.0000  Ry
     scf convergence threshold =      1.0E-06
     mixing beta               =       0.1000
     number of iterations used =            8  plain     mixing
     Exchange-correlation= SLA  PW   PBE  PBE
                           (   1   4   3   4   0   0   0)

     Effective Screening Medium Method
     Boundary Conditions: Vacuum-Slab-Vacuum
     total charge in unit cell        =   0.0000
     grid points for fit at edges     =        4

     celldm(1)=   9.739563  celldm(2)=   0.000000  celldm(3)=   0.000000
     celldm(4)=   0.000000  celldm(5)=   0.000000  celldm(6)=   0.000000

     crystal axes: (cart. coord. in units of alat)
               a(1) = (   1.000000   0.000000   0.000000 )
               a(2) = (   0.500000   0.866025   0.000000 )
               a(3) = (   0.000000   0.000000   5.820773 )

     reciprocal axes: (cart. coord. in units 2 pi/alat)
               b(1) = (  1.000000 -0.577350  0.000000 )
               b(2) = (  0.000000  1.154701  0.000000 )
               b(3) = (  0.000000  0.000000  0.171798 )

     PseudoPot. # 1 for Cu read from file:
     ../../../pseudo/cu_pbe_v1.2.uspp.F.UPF
     MD5 check sum: 6e991ff952a84172a2a52a1c1e996048
     Pseudo is Ultrasoft + core correction, Zval = 19.0
     Generated by new atomic code, or converted to UPF format
     Using radial grid of  867 points,  6 beta functions with:
                l(1) =   0
                l(2) =   0
                l(3) =   1
                l(4) =   1
                l(5) =   2
                l(6) =   2
     Q(r) pseudized with  8 coefficients,  rinner =    1.150   1.150   1.150
                                                       1.150   1.150

     atomic species   valence    mass     pseudopotential
     Cu               19.00    63.54600     Cu( 1.00)

     No symmetry found

   Cartesian axes

     site n.     atom                  positions (alat units)
         1        Cu     tau(   1) = (   0.0000000   0.0000000  -0.4043952  )
         2        Cu     tau(   2) = (   0.5000000   0.2886751   0.0038531  )
         3        Cu     tau(   3) = (   0.2500000   0.1443376   0.4121014  )
         4        Cu     tau(   4) = (   0.2500000   0.4330127  -0.4043952  )
         5        Cu     tau(   5) = (   0.7500000   0.7216878   0.0038531  )
         6        Cu     tau(   6) = (   0.5000000   0.5773503   0.4121014  )
         7        Cu     tau(   7) = (   0.5000000   0.0000000  -0.4043952  )
         8        Cu     tau(   8) = (   1.0000000   0.2886751   0.0038531  )
         9        Cu     tau(   9) = (   0.7500000   0.1443376   0.4121014  )
        10        Cu     tau(  10) = (   0.7500000   0.4330127  -0.4043952  )
        11        Cu     tau(  11) = (   1.2500000   0.7216878   0.0038531  )
        12        Cu     tau(  12) = (   1.0000000   0.5773503   0.4121014  )

     number of k points=     8  Gaussian smearing, width (Ry)=  0.0100
                       cart. coord. in units 2pi/alat
        k(    1) = (   0.1250000   0.0721688   0.0000000), wk =   0.2500000
        k(    2) = (   0.1250000   0.3608439   0.0000000), wk =   0.2500000
        k(    3) = (   0.1250000  -0.5051815   0.0000000), wk =   0.2500000
        k(    4) = (   0.1250000  -0.2165064   0.0000000), wk =   0.2500000
        k(    5) = (   0.3750000  -0.0721688   0.0000000), wk =   0.2500000
        k(    6) = (   0.3750000   0.2165064   0.0000000), wk =   0.2500000
        k(    7) = (   0.3750000  -0.6495191   0.0000000), wk =   0.2500000
        k(    8) = (   0.3750000  -0.3608439   0.0000000), wk =   0.2500000

     Solute:
       # atom     E (kcal/mol)  S (angs)
       1  Cu      0.00500000    3.11369102    given
       2  Cu      0.00500000    3.11369102    given
       3  Cu      0.00500000    3.11369102    given
       4  Cu      0.00500000    3.11369102    given
       5  Cu      0.00500000    3.11369102    given
       6  Cu      0.00500000    3.11369102    given
       7  Cu      0.00500000    3.11369102    given
       8  Cu      0.00500000    3.11369102    given
       9  Cu      0.00500000    3.11369102    given
      10  Cu      0.00500000    3.11369102    given
      11  Cu      0.00500000    3.11369102    given
      12  Cu      0.00500000    3.11369102    given

     Wall:
       Density =    0.01000000  bohr^-3
       E       =    0.10000000  kcal/mol
       S       =    4.00000000  angs

     Laue-RISM info
     closure equation        =           KH
     temperature             =     300.0000  kelvin
     coulomb smearing radius =       2.0000  bohr
     number of solvent sites =            6
     solvent sites           =    O/h2o   H/h2o   L/h2o       K
     solvent sites           =     O/oh    H/oh
     number of iterations    =        15000
     convergence threshold   =      1.0E-06
     convergence level       =       0.7000
     size of MDIIS           =           20
     step of MDIIS           =       0.1000
     solvent cutoff          =     160.0000  Ry
     Custom grid:   159127 G-vectors     FFT dimensions: (  40,  40, 240)

     Boundary Conditions        : Vacuum-Slab-Solvent
     unit-cell (in bohr)        : [ -28.345892  28.345892]
     expand-cell (in bohr)      : [ -28.345892  89.761991]
     solvent of right (in bohr) : [   0.000000  89.761991]
     buffer  of right (in bohr) : [  -4.015668   0.000000]
     repulsive wall (in bohr)   : [  -Infinity  -2.286274]
     reference of potential     : right-hand side
     #grids to fit at edges of unit-cell =    4
     Laue grid:     1039 Gxy-vectors     FFT dimensions: (  40,  40, 500)

     Initial potential from superposition of free atoms

     starting charge     216.0000, renormalised to     228.0000

     negative rho (up, down):  4.341E-03 0.000E+00

     Laue-RISM Calculation

     convergence threshold    = 1.585E-05
     iter. #     1  RMS(g-h-1)= 1.997E+00  nbox=  0
     iter. #    11  RMS(g-h-1)= 1.119E-01  nbox= 10
     iter. #    21  RMS(g-h-1)= 7.686E-02  nbox= 20
     iter. #    31  RMS(g-h-1)= 2.962E-02  nbox= 20
     iter. #    41  RMS(g-h-1)= 1.970E-02  nbox= 20
     iter. #    51  RMS(g-h-1)= 1.453E-02  nbox= 20
     iter. #    61  RMS(g-h-1)= 1.156E-02  nbox= 20
     iter. #    71  RMS(g-h-1)= 9.748E-03  nbox= 20
     iter. #    81  RMS(g-h-1)= 8.710E-03  nbox=  7
     iter. #    91  RMS(g-h-1)= 6.410E-03  nbox= 17
     iter. #   101  RMS(g-h-1)= 4.297E-03  nbox= 20
     iter. #   111  RMS(g-h-1)= 3.678E-03  nbox= 20
     iter. #   121  RMS(g-h-1)= 3.230E-03  nbox=  6
     iter. #   131  RMS(g-h-1)= 2.759E-03  nbox= 16
     iter. #   141  RMS(g-h-1)= 2.427E-03  nbox= 10
     iter. #   151  RMS(g-h-1)= 1.871E-03  nbox= 20
     iter. #   161  RMS(g-h-1)= 1.341E-03  nbox= 20
     iter. #   171  RMS(g-h-1)= 1.222E-03  nbox= 20
     iter. #   181  RMS(g-h-1)= 1.107E-03  nbox=  8
     iter. #   191  RMS(g-h-1)= 9.289E-04  nbox=  2
     iter. #   201  RMS(g-h-1)= 8.013E-04  nbox= 12
     iter. #   211  RMS(g-h-1)= 7.108E-04  nbox=  6
     iter. #   221  RMS(g-h-1)= 6.164E-04  nbox= 16
     iter. #   231  RMS(g-h-1)= 5.301E-04  nbox= 10
     iter. #   241  RMS(g-h-1)= 4.513E-04  nbox=  4
     iter. #   251  RMS(g-h-1)= 3.808E-04  nbox= 14
     iter. #   261  RMS(g-h-1)= 3.430E-04  nbox=  8
     iter. #   271  RMS(g-h-1)= 3.208E-04  nbox=  2
     iter. #   281  RMS(g-h-1)= 3.005E-04  nbox= 12
     iter. #   291  RMS(g-h-1)= 2.802E-04  nbox=  6
     iter. #   301  RMS(g-h-1)= 2.657E-04  nbox= 16
     iter. #   311  RMS(g-h-1)= 2.525E-04  nbox= 10
     iter. #   321  RMS(g-h-1)= 2.406E-04  nbox=  4
     iter. #   331  RMS(g-h-1)= 2.226E-04  nbox= 14
     iter. #   341  RMS(g-h-1)= 2.131E-04  nbox=  8
     iter. #   351  RMS(g-h-1)= 2.023E-04  nbox=  2
     iter. #   361  RMS(g-h-1)= 1.919E-04  nbox= 12
     iter. #   371  RMS(g-h-1)= 1.839E-04  nbox=  6
     iter. #   381  RMS(g-h-1)= 1.726E-04  nbox= 16
     iter. #   391  RMS(g-h-1)= 1.648E-04  nbox= 10
     iter. #   401  RMS(g-h-1)= 1.548E-04  nbox=  4
     iter. #   411  RMS(g-h-1)= 1.466E-04  nbox= 14
     iter. #   421  RMS(g-h-1)= 1.398E-04  nbox=  8
     iter. #   431  RMS(g-h-1)= 1.327E-04  nbox=  2
     iter. #   441  RMS(g-h-1)= 1.248E-04  nbox= 12
     iter. #   451  RMS(g-h-1)= 1.174E-04  nbox=  6
     iter. #   461  RMS(g-h-1)= 1.109E-04  nbox= 16
     iter. #   471  RMS(g-h-1)= 1.086E-04  nbox= 10
     iter. #   481  RMS(g-h-1)= 1.054E-04  nbox=  4
     iter. #   491  RMS(g-h-1)= 1.023E-04  nbox= 14
     iter. #   501  RMS(g-h-1)= 9.992E-05  nbox=  8
     iter. #   511  RMS(g-h-1)= 9.754E-05  nbox=  2
     iter. #   521  RMS(g-h-1)= 9.254E-05  nbox= 12
     iter. #   531  RMS(g-h-1)= 8.857E-05  nbox=  6
     iter. #   541  RMS(g-h-1)= 8.477E-05  nbox= 16
     iter. #   551  RMS(g-h-1)= 8.136E-05  nbox= 10
     iter. #   561  RMS(g-h-1)= 7.531E-05  nbox=  4
     iter. #   571  RMS(g-h-1)= 7.126E-05  nbox= 14
     iter. #   581  RMS(g-h-1)= 6.780E-05  nbox=  8
     iter. #   591  RMS(g-h-1)= 6.496E-05  nbox=  2
[...]
     iter. #   651  RMS(g-h-1)= 5.163E-05  nbox= 14
     iter. #   661  RMS(g-h-1)= 5.056E-05  nbox=  8
     iter. #   671  RMS(g-h-1)= 4.938E-05  nbox=  2
     iter. #   681  RMS(g-h-1)= 4.762E-05  nbox= 12
     iter. #   691  RMS(g-h-1)= 4.618E-05  nbox=  6
     iter. #   701  RMS(g-h-1)= 4.410E-05  nbox= 16
     iter. #   711  RMS(g-h-1)= 4.230E-05  nbox= 10
     iter. #   721  RMS(g-h-1)= 3.971E-05  nbox=  4
     iter. #   731  RMS(g-h-1)= 3.524E-05  nbox= 14
     iter. #   741  RMS(g-h-1)= 3.031E-05  nbox=  8
     iter. #   751  RMS(g-h-1)= 2.715E-05  nbox=  2
     iter. #   761  RMS(g-h-1)= 2.381E-05  nbox= 12
     iter. #   771  RMS(g-h-1)= 2.063E-05  nbox=  6
     iter. #   781  RMS(g-h-1)= 1.781E-05  nbox= 16
     iter. #   790  RMS(g-h-1)= 1.573E-05  nbox=  9

     End of Laue-RISM calculation

[...]

     solvent charge   -0.00030, renormalised to    0.00000

     Total number of solvent (in expand-cell)
     H2O           32.703727
     K+             0.637303
     OH-            0.636457

     Total charge of solvent (in expand-cell)
     H2O            0.000153 e
     K+             0.637303 e
     OH-           -0.637760 e
     Total         -0.000303 e

     Chemical potential of solvation (in expand-cell)
     H2O        GaussFluct   0.543862E+01 kcal/mol
     K+         GaussFluct   0.284598E+00 kcal/mol
     OH-        GaussFluct  -0.397092E-01 kcal/mol
     Total      GaussFluct   0.568351E+01 kcal/mol

     Starting wfcs are  156 randomized atomic wfcs

     Self-consistent Calculation

     iteration #  1     ecut=    40.00 Ry     beta= 0.10
     Davidson diagonalization with overlap
     ethr =  1.00E-02,  avg # of iterations =  6.5

[...]

     total energy              =   -4843.87162183 Ry
     estimated scf accuracy    <      70.28810510 Ry

[...]

     iteration #  5     ecut=    40.00 Ry     beta= 0.10
     Davidson diagonalization with overlap
     c_bands:  3 eigenvalues not converged
     c_bands:  1 eigenvalues not converged
     c_bands:  1 eigenvalues not converged
     c_bands:  2 eigenvalues not converged
     c_bands:  1 eigenvalues not converged
     c_bands:  1 eigenvalues not converged
     c_bands:  2 eigenvalues not converged
     c_bands:  1 eigenvalues not converged
     ethr =  3.50E-04,  avg # of iterations = 20.0

[...]

     iteration # 15     ecut=    40.00 Ry     beta= 0.10
     Davidson diagonalization with overlap
     c_bands:  2 eigenvalues not converged
     ethr =  4.63E-07,  avg # of iterations =  3.6

[...]

     total energy              =   -4845.08252483 Ry
     estimated scf accuracy    <       0.00000660 Ry

     iteration # 26     ecut=    40.00 Ry     beta= 0.10
     Davidson diagonalization with overlap
     ethr =  5.85E-10,  avg # of iterations =  3.8

[...]

     Laue-RISM Calculation

     convergence threshold    = 1.000E-06
     iter. #     1  RMS(g-h-1)= 4.052E-05  nbox=  0
     iter. #    11  RMS(g-h-1)= 7.670E-06  nbox= 10
     iter. #    21  RMS(g-h-1)= 9.498E-06  nbox= 20
     iter. #    31  RMS(g-h-1)= 2.878E-06  nbox= 11
     iter. #    41  RMS(g-h-1)= 2.199E-06  nbox= 20
     iter. #    51  RMS(g-h-1)= 1.826E-06  nbox= 20
     iter. #    61  RMS(g-h-1)= 1.605E-06  nbox=  7
     iter. #    71  RMS(g-h-1)= 1.240E-06  nbox= 17
     iter. #    81  RMS(g-h-1)= 1.118E-06  nbox= 11
     iter. #    89  RMS(g-h-1)= 9.950E-07  nbox=  3

     End of Laue-RISM calculation

[...]

     solvent charge   -0.00009, renormalised to   -0.00000

     Total number of solvent (in expand-cell)
     H2O           32.746020
     K+             0.644419
     OH-            0.644462

     Total charge of solvent (in expand-cell)
     H2O           -0.000011 e
     K+             0.644419 e
     OH-           -0.644494 e
     Total         -0.000085 e

     Chemical potential of solvation (in expand-cell)
     H2O        GaussFluct   0.514667E+01 kcal/mol
     K+         GaussFluct  -0.240400E+00 kcal/mol
     OH-        GaussFluct   0.504386E+00 kcal/mol
     Total      GaussFluct   0.541066E+01 kcal/mol

     End of self-consistent calculation

          k = 0.1250 0.0722 0.0000 ( 19861 PWs)   bands (ev):

  -117.0636-117.0559-117.0556-117.0556-116.7888-116.7862-116.7812-116.7809
  -116.7809-116.7786-116.7783-116.7783 -74.4933 -74.4933 -74.4878 -74.4597
   -74.4498 -74.4495 -74.4495 -74.4387 -74.4368 -74.4368 -74.4210 -74.4178
   -74.2401 -74.2401 -74.2372 -74.2372 -74.2273 -74.2244 -74.1884 -74.1861
   -74.1792 -74.1792 -74.1768 -74.1768 -74.1710 -74.1686 -74.1588 -74.1564
   -74.1444 -74.1395 -74.1368 -74.1365 -74.1365 -74.1334 -74.1331 -74.1331
   -12.9689 -11.0277  -9.5465  -9.2916  -9.1513  -9.1513  -8.9680  -8.9246
    -8.9246  -8.5969  -8.5569  -8.5569  -8.4609  -8.4609  -8.4605  -7.8833
    -7.8833  -7.8722  -7.5275  -7.5265  -7.5207  -7.5207  -7.4860  -7.4194
    -7.4036  -7.2995  -7.2995  -7.2270  -7.2160  -7.2025  -7.1330  -7.0824
    -7.0699  -7.0469  -7.0469  -6.6746  -6.6746  -6.6483  -6.6427  -6.6366
    -6.5680  -6.5659  -6.5659  -6.5007  -6.3308  -6.2622  -6.2418  -6.2418
    -6.2146  -6.1829  -6.1695  -6.1695  -6.1463  -6.1463  -6.1273  -6.1204
    -6.0162  -6.0162  -5.9378  -5.9378  -5.9209  -5.9089  -5.8046  -5.3060
    -4.5642  -4.5642  -4.3583  -4.2413  -3.5334  -3.5334  -2.5456  -2.5456
    -2.3064  -0.4663  -0.1138  -0.0267  -0.0083  -0.0083   0.0519   0.5606
     0.8154   0.8155   0.8372   1.0004   1.8344   2.0867   2.1555   2.1556
     2.1846

[...]

          k = 0.3750-0.3608 0.0000 ( 19917 PWs)   bands (ev):

  -117.0604-117.0588-117.0566-117.0550-116.7856-116.7841-116.7831-116.7819
  -116.7815-116.7803-116.7793-116.7777 -74.4781 -74.4757 -74.4642 -74.4594
   -74.4555 -74.4535 -74.4515 -74.4506 -74.4484 -74.4436 -74.4295 -74.4240
   -74.2203 -74.2200 -74.2177 -74.2173 -74.2108 -74.2083 -74.2065 -74.2040
   -74.2003 -74.1979 -74.1883 -74.1859 -74.1727 -74.1703 -74.1654 -74.1630
   -74.1409 -74.1393 -74.1372 -74.1372 -74.1359 -74.1358 -74.1340 -74.1326
   -11.5770 -10.7649  -9.8137  -9.4655  -9.2948  -8.7540  -8.6772  -8.5877
    -8.5100  -8.4704  -8.2836  -8.2738  -8.1091  -8.0732  -8.0411  -7.9203
    -7.8920  -7.8777  -7.8088  -7.8018  -7.6986  -7.6842  -7.5187  -7.5129
    -7.4073  -7.3833  -7.3149  -7.2963  -7.2823  -7.2689  -7.2619  -7.2273
    -7.2149  -7.1475  -7.1231  -7.0815  -7.0808  -7.0630  -7.0099  -6.9899
    -6.9392  -6.7758  -6.7695  -6.7222  -6.6572  -6.6506  -6.6314  -6.5964
    -6.5744  -6.5273  -6.4388  -6.4123  -6.4055  -6.3324  -6.3320  -6.2817
    -6.2309  -6.1699  -6.1378  -6.1281  -6.1239  -6.0680  -6.0643  -6.0060
    -5.3945  -4.6249  -4.5486  -3.8684  -3.4132  -2.2407  -2.1755  -2.0762
    -1.0697  -0.2765   0.8244   0.8833   0.9152   1.3094   1.3656   1.6741
     1.8904   1.9871   2.1813   2.1994   2.2503   2.3010   2.9094   2.9359
     3.0872

     the Fermi energy is    -4.5919 ev

!    total energy              =   -4845.08253393 Ry
     estimated scf accuracy    <       0.00000006 Ry
     smearing contrib. (-TS)   =      -0.00806848 Ry
     internal energy E=F+TS    =   -4845.07446546 Ry

     The total energy is F=E-TS. E is the sum of the following terms:
     one-electron contribution =   26930.31595288 Ry
     hartree contribution      =  -13500.20023458 Ry
     xc contribution           =    -465.25639426 Ry
     ewald contribution        =  -17809.95104590 Ry
     solvation energy (RISM)   =       0.01725640 Ry

     convergence has been achieved in  26 iterations

     negative rho (up, down):  1.587E-03 0.000E+00

     Forces acting on atoms (cartesian axes, Ry/au):

     atom    1 type  1   force =     0.00023708    0.00015453    0.00567279
     atom    2 type  1   force =     0.00001839    0.00000947    0.00003301
     atom    3 type  1   force =    -0.00022556   -0.00013428   -0.00698762
     atom    4 type  1   force =     0.00023160    0.00011741    0.00568237
     atom    5 type  1   force =    -0.00001988   -0.00000718    0.00003633
     atom    6 type  1   force =    -0.00023260   -0.00014490   -0.00698414
     atom    7 type  1   force =     0.00021330    0.00013537    0.00568347
     atom    8 type  1   force =    -0.00001736   -0.00000031    0.00003347
     atom    9 type  1   force =    -0.00023900   -0.00011841   -0.00698038
     atom   10 type  1   force =     0.00024739    0.00012523    0.00569047
     atom   11 type  1   force =     0.00001673    0.00000545    0.00005486
     atom   12 type  1   force =    -0.00023009   -0.00014238   -0.00699256

     Total force =     0.013983     Total SCF correction =     0.000579

     Writing all to output data dir ./output/opt.save/ :
     XML data file, charge density, RISM restart, pseudopotentials, RISM molfiles, collected wavefunctions

     General routines

     Parallel routines

     RISM routines

   This run was terminated on:  15: 7:38   9Jun2024

   JOB DONE.