     Program PWSCF v.7.2 starts on  4Jun2024 at 14:24:36

     Reading input from scf_dipole.in
Warning: card &CELL ignored
Warning: card / ignored

     Current dimensions of program PWSCF are:
     Max number of different atomic species (ntypx) = 10
     Max number of k-points (npk) =  40000
     Max angular momentum in pseudopotentials (lmaxx) =  4

     R & G space division:  proc/nbgrp/npool/nimage =      32
     Subspace diagonalization in iterative solution of the eigenvalue problem:
     a serial algorithm will be used

     Using Slab Decomposition

     bravais-lattice index     =            0
     lattice parameter (alat)  =       9.6476  a.u.
     unit-cell volume          =    4569.7547 (a.u.)^3
     number of atoms/cell      =           14
     number of atomic types    =            3
     number of electrons       =       238.00
     number of Kohn-Sham states=          143
     kinetic-energy cutoff     =      40.0000  Ry
     charge density cutoff     =     320.0000  Ry
     scf convergence threshold =      1.0E-06
     mixing beta               =       0.1000
     number of iterations used =            8  plain     mixing
     Exchange-correlation= SLA  PW   PBE  PBE
                           (   1   4   3   4   0   0   0)

     celldm(1)=   9.647639  celldm(2)=   0.000000  celldm(3)=   0.000000
     celldm(4)=   0.000000  celldm(5)=   0.000000  celldm(6)=   0.000000

     crystal axes: (cart. coord. in units of alat)
               a(1) = (   1.000000   0.000000   0.000000 )
               a(2) = (   0.500000   0.866025   0.000000 )
               a(3) = (   0.000000   0.000000   5.876234 )

     reciprocal axes: (cart. coord. in units 2 pi/alat)
               b(1) = (  1.000000 -0.577350  0.000000 )
               b(2) = (  0.000000  1.154701  0.000000 )
               b(3) = (  0.000000  0.000000  0.170177 )

     PseudoPot. # 1 for Cu read from file:
     ../../pseudo/cu_pbe_v1.2.uspp.F.UPF
     MD5 check sum: 6e991ff952a84172a2a52a1c1e996048
     Pseudo is Ultrasoft + core correction, Zval = 19.0
     Generated by new atomic code, or converted to UPF format
     Using radial grid of  867 points,  6 beta functions with:
                l(1) =   0
                l(2) =   0
                l(3) =   1
                l(4) =   1
                l(5) =   2
                l(6) =   2
     Q(r) pseudized with  8 coefficients,  rinner =    1.150   1.150   1.150
                                                       1.150   1.150

     PseudoPot. # 2 for O  read from file:
     ../../pseudo/o_pbe_v1.2.uspp.F.UPF
     MD5 check sum: 734c27235a0248c51dbae37a1fbe46ec
     Pseudo is Ultrasoft + core correction, Zval =  6.0
     Generated by new atomic code, or converted to UPF format
     Using radial grid of  737 points,  5 beta functions with:
                l(1) =   0
                l(2) =   0
                l(3) =   1
                l(4) =   1
                l(5) =   2
     Q(r) pseudized with  8 coefficients,  rinner =    0.900   0.900   0.900
                                                       0.900   0.900

     PseudoPot. # 3 for C  read from file:
     ../../pseudo/c_pbe_v1.2.uspp.F.UPF
     MD5 check sum: d1aef80898a10debaa0f26306b886e00
     Pseudo is Ultrasoft + core correction, Zval =  4.0
     Generated by new atomic code, or converted to UPF format
     Using radial grid of  721 points,  4 beta functions with:
                l(1) =   0
                l(2) =   0
                l(3) =   1
                l(4) =   1
     Q(r) pseudized with  8 coefficients,  rinner =    1.100   1.100   1.100

     atomic species   valence    mass     pseudopotential
        Cu            19.00    63.54600     Cu( 1.00)
        O              6.00    15.99900     O ( 1.00)
        C              4.00    12.01100     C ( 1.00)

     No symmetry found

   Cartesian axes

     site n.     atom                  positions (alat units)
         1           Cu  tau(   1) = (   0.1250000   0.0721688  -0.3917489  )
         2           Cu  tau(   2) = (   0.6303651   0.3620439   0.0093767  )
         3           Cu  tau(   3) = (   0.3908697   0.2225165   0.4072039  )
         4           Cu  tau(   4) = (   0.3750000   0.5051815  -0.3917489  )
         5           Cu  tau(   5) = (   0.8810586   0.7929929   0.0121369  )
         6           Cu  tau(   6) = (   0.6406493   0.6600251   0.4293002  )
         7           Cu  tau(   7) = (   0.6250000   0.0721688  -0.3917489  )
         8           Cu  tau(   8) = (   1.1289367   0.3637558   0.0124115  )
         9           Cu  tau(   9) = (   0.8944855   0.2208325   0.4305396  )
        10           Cu  tau(  10) = (   0.8750000   0.5051815  -0.3917489  )
        11           Cu  tau(  11) = (   1.3806944   0.7954917   0.0246836  )
        12           Cu  tau(  12) = (   1.1455917   0.6584810   0.4319321  )
        13           O   tau(  13) = (   0.8819856   0.5082280   0.9272744  )
        14           C   tau(  14) = (   0.8813532   0.5068991   0.6960150  )

     number of k points=     2  Methfessel-Paxton smearing, width (Ry)=  0.0100
                       cart. coord. in units 2pi/alat
        k(    1) = (   0.2500000   0.1443376   0.0000000), wk =   1.0000000
        k(    2) = (   0.2500000  -0.4330127   0.0000000), wk =   1.0000000

     Initial potential from superposition of free atoms

     starting charge     225.9999, renormalised to     238.0000

     negative rho (up, down):  4.013E-03 0.000E+00

     Adding external electric field

     Computed dipole along edir(3) :
        Dipole               -4.1946 Ry au,        -10.6616 Debye
        Dipole field         -0.0115 Ry au,

        Potential amp.        1.2948 Ry
        Total length         56.1249 bohr

     Starting wfcs are  164 randomized atomic wfcs

     Self-consistent Calculation

     iteration #  1     ecut=    40.00 Ry     beta= 0.10
     Davidson diagonalization with overlap
     ethr =  1.00E-02,  avg # of iterations = 10.0

[...]

     total energy              =   -4436.09998185 Ry
     estimated scf accuracy    <    2554.64790858 Ry

[...]

     iteration # 21     ecut=    40.00 Ry     beta= 0.10
     Davidson diagonalization with overlap
     c_bands:  1 eigenvalues not converged
     ethr =  2.28E-06,  avg # of iterations = 18.0

[...]

     iteration # 22     ecut=    40.00 Ry     beta= 0.10
     Davidson diagonalization with overlap
     c_bands:  1 eigenvalues not converged
     ethr =  5.95E-07,  avg # of iterations = 16.0

[...]

     total energy              =   -4888.89308682 Ry
     estimated scf accuracy    <       0.00000126 Ry

     iteration # 29     ecut=    40.00 Ry     beta= 0.10
     Davidson diagonalization with overlap
     ethr =  5.30E-10,  avg # of iterations =  2.0

[...]

     Adding external electric field

     Computed dipole along edir(3) :
        Dipole               -0.1944 Ry au,         -0.4940 Debye
        Dipole field         -0.0005 Ry au,

        Potential amp.        0.0600 Ry
        Total length         56.1249 bohr

     End of self-consistent calculation

          k = 0.2500 0.1443 0.0000 ( 19495 PWs)   bands (ev):

  -113.0705-113.0643-113.0259-112.9168-112.8295-112.6757-112.6704-112.6538
  -112.6083-112.5431-112.5382-112.4510 -70.6160 -70.5873 -70.5387 -70.4266
   -70.4190 -70.3683 -70.3550 -70.3538 -70.3438 -70.3286 -70.3192 -70.2590
   -70.2405 -70.2221 -70.1998 -70.1172 -70.1006 -70.0908 -70.0815 -70.0559
   -70.0516 -70.0511 -70.0480 -70.0338 -70.0133 -70.0113 -69.9938 -69.9620
   -69.9396 -69.9297 -69.9214 -69.8931 -69.8887 -69.8832 -69.8315 -69.8231
   -23.5736 -10.7518  -8.4602  -7.5959  -7.1168  -7.0500  -6.1054  -5.5380
    -5.0581  -4.9386  -4.9368  -4.8249  -4.7184  -4.6755  -4.4362  -4.3683
    -4.3494  -4.2464  -4.2374  -4.1790  -3.8297  -3.8062  -3.7304  -3.6366
    -3.5187  -3.4267  -3.4051  -3.3627  -3.3530  -3.3360  -3.2867  -3.1855
    -3.1666  -3.1123  -3.0659  -3.0569  -3.0204  -2.9937  -2.9731  -2.8543
    -2.7936  -2.7699  -2.7002  -2.6596  -2.6030  -2.5575  -2.5123  -2.4595
    -2.4530  -2.4378  -2.3313  -2.2872  -2.2739  -2.1859  -2.1181  -2.0873
    -2.0772  -2.0549  -2.0073  -1.9708  -1.9607  -1.9214  -1.8875  -1.8608
    -1.8453  -1.7934  -1.7564  -1.7386  -1.2557  -0.6262  -0.4417  -0.0856
     0.3132   0.5072   0.9854   1.6869   2.1785   2.5459   3.1536   3.7845
     4.3241   4.7544   4.7662   4.8876   5.0314   5.5135   5.6425   5.7660
     6.0168   6.1149   6.6599   6.8572   6.9982   7.4921   8.0040

          k = 0.2500-0.4330 0.0000 ( 19534 PWs)   bands (ev):

  -113.0693-113.0656-113.0259-112.9167-112.8296-112.6739-112.6722-112.6537
  -112.6084-112.5414-112.5399-112.4510 -70.6041 -70.5983 -70.5382 -70.4242
   -70.4207 -70.3603 -70.3554 -70.3507 -70.3437 -70.3378 -70.3126 -70.2586
   -70.2406 -70.2315 -70.1995 -70.1023 -70.0960 -70.0825 -70.0696 -70.0674
   -70.0599 -70.0541 -70.0499 -70.0485 -70.0126 -70.0066 -69.9818 -69.9758
   -69.9390 -69.9322 -69.9242 -69.8915 -69.8903 -69.8832 -69.8330 -69.8231
   -23.5730 -10.6515  -7.8155  -7.3833  -7.0980  -7.0747  -5.9719  -5.9391
    -5.5106  -4.8560  -4.7767  -4.5444  -4.4334  -4.3387  -4.2477  -4.2285
    -4.1474  -4.0532  -3.9819  -3.9513  -3.8467  -3.8025  -3.7840  -3.6997
    -3.6860  -3.6488  -3.5648  -3.5111  -3.4691  -3.4283  -3.3189  -3.2974
    -3.2724  -3.2281  -3.2166  -3.1691  -3.1287  -3.0934  -3.0539  -3.0107
    -2.9399  -2.8889  -2.8822  -2.8618  -2.7539  -2.7112  -2.6662  -2.6364
    -2.6097  -2.5324  -2.5142  -2.4505  -2.4057  -2.3186  -2.3142  -2.2531
    -2.2071  -2.1856  -2.1318  -2.0668  -1.9986  -1.9621  -1.9520  -1.9288
    -1.9056  -1.8701  -1.7804  -1.7176  -1.5755  -1.3418  -0.8766   0.0920
     0.5458   1.1421   1.9851   2.1393   2.6652   2.7684   3.2366   3.8978
     4.8654   5.1804   5.2146   5.6910   5.9405   6.0444   6.2324   6.6115
     6.6845   6.9136   6.9528   7.5107   7.5250   7.7404   7.8041

     the Fermi energy is    -0.2641 ev

!    total energy              =   -4888.89309204 Ry
     estimated scf accuracy    <       0.00000073 Ry
     smearing contrib. (-TS)   =       0.00126881 Ry
     internal energy E=F+TS    =   -4888.89436086 Ry

     The total energy is F=E-TS. E is the sum of the following terms:
     one-electron contribution =  -54526.66500711 Ry
     hartree contribution      =   27267.41012848 Ry
     xc contribution           =    -476.15850274 Ry
     ewald contribution        =   22846.51891662 Ry
     electric field correction =       0.00010389 Ry

     convergence has been achieved in  29 iterations

     negative rho (up, down):  1.937E-03 0.000E+00

     Forces acting on atoms (cartesian axes, Ry/au):

     atom    1 type  1   force =    -0.00151230   -0.00119389   -0.00066148
     atom    2 type  1   force =     0.00044119    0.00043868    0.00051828
     atom    3 type  1   force =     0.00025332    0.00052833   -0.00068302
     atom    4 type  1   force =    -0.00063639    0.00062426    0.00089655
     atom    5 type  1   force =     0.00039402   -0.00035991    0.00064378
     atom    6 type  1   force =     0.00093293   -0.00043893   -0.00065784
     atom    7 type  1   force =     0.00044262   -0.00106263    0.00066368
     atom    8 type  1   force =    -0.00029939    0.00086620    0.00069391
     atom    9 type  1   force =    -0.00000572    0.00107189   -0.00116379
     atom   10 type  1   force =    -0.00013720   -0.00049198    0.00281182
     atom   11 type  1   force =     0.00003378   -0.00003374    0.00039680
     atom   12 type  1   force =    -0.00134825   -0.00063614   -0.00039844
     atom   13 type  2   force =     0.00090889    0.00039101   -0.00260613
     atom   14 type  3   force =     0.00053249    0.00029685   -0.00045415
     The non-local contrib.  to forces
     atom    1 type  1   force =    -0.01508519   -0.00976746   -0.24477430
     atom    2 type  1   force =    -0.02215987   -0.01314762    0.00931389
     atom    3 type  1   force =     0.09191462    0.05272718    0.29732129
     atom    4 type  1   force =    -0.00967742    0.02486595   -0.27668752
     atom    5 type  1   force =    -0.05250418    0.05586491   -0.03431999
     atom    6 type  1   force =     0.14210507   -0.17346349    0.21992245
     atom    7 type  1   force =     0.01520699   -0.02071020   -0.27682272
     atom    8 type  1   force =     0.02152199   -0.07274566   -0.03292252
     atom    9 type  1   force =    -0.07908045    0.20867610    0.22028672
     atom   10 type  1   force =    -0.00827844   -0.00416855   -0.30803971
     atom   11 type  1   force =     0.03074367    0.01749019   -0.08040329
     atom   12 type  1   force =    -0.18260494   -0.10576207    0.22153843
     atom   13 type  2   force =    -0.00413604   -0.01219052   -2.29240529
     atom   14 type  3   force =     0.02118683    0.01496141    0.48426930
     The ionic contribution  to forces
     atom    1 type  1   force =    -0.64323978   -0.38395821 -371.49090868
     atom    2 type  1   force =     0.71663353    0.41853411  -24.44118466
     atom    3 type  1   force =     1.03071496    0.66023688  322.13901659
     atom    4 type  1   force =    -0.07104273    0.95118992 -371.80001731
     atom    5 type  1   force =    -0.06844534   -0.37995306  -22.99674277
     atom    6 type  1   force =    -4.06914940    1.03349791  330.99129080
     atom    7 type  1   force =     0.80686406   -0.56524434 -371.85339638
     atom    8 type  1   force =    -0.39310111    0.13456917  -22.72781986
     atom    9 type  1   force =    -1.11269641   -4.08249739  331.83110135
     atom   10 type  1   force =     0.18511374    0.06941140 -372.73217601
     atom   11 type  1   force =     0.09091135    0.08219159  -14.39620654
     atom   12 type  1   force =     3.53771597    2.01821860  333.84649315
     atom   13 type  2   force =    -0.01703660    0.04167376  157.62131553
     atom   14 type  3   force =     0.00675776    0.00212965   96.00923477
     The local contribution  to forces
     atom    1 type  1   force =     0.65690588    0.39266768  371.71215674
     atom    2 type  1   force =    -0.69404883   -0.40497362   24.40954522
     atom    3 type  1   force =    -1.12264401   -0.71258004 -322.45660365
     atom    4 type  1   force =     0.07984168   -0.97549140  372.05516850
     atom    5 type  1   force =     0.12121239    0.32390897   23.00909550
     atom    6 type  1   force =     3.92721725   -0.85978421 -331.23189984
     atom    7 type  1   force =    -0.82182902    0.58467940  372.10832302
     atom    8 type  1   force =     0.37135936   -0.06116003   22.73881682
     atom    9 type  1   force =     1.19199069    3.87388219 -332.07257200
     atom   10 type  1   force =    -0.17665165   -0.06561027  373.02050738
     atom   11 type  1   force =    -0.12143919   -0.09958836   14.45470122
     atom   12 type  1   force =    -3.35581296   -1.91273098 -334.08852891
     atom   13 type  2   force =     0.02205782   -0.02913832 -155.34268884
     atom   14 type  3   force =    -0.02718668   -0.01667739  -96.50110047
     The core correction contribution to forces
     atom    1 type  1   force =     0.00000234    0.00000052    0.00022870
     atom    2 type  1   force =    -0.00002916   -0.00001831   -0.00004836
     atom    3 type  1   force =    -0.00005230   -0.00002935   -0.00029087
     atom    4 type  1   force =    -0.00001271   -0.00002995    0.00033587
     atom    5 type  1   force =     0.00004478   -0.00004863    0.00003168
     atom    6 type  1   force =     0.00008759    0.00008387   -0.00037706
     atom    7 type  1   force =    -0.00003105    0.00000691    0.00033493
     atom    8 type  1   force =    -0.00002102    0.00006532    0.00003006
     atom    9 type  1   force =     0.00011543    0.00003539   -0.00037916
     atom   10 type  1   force =    -0.00002333   -0.00001779    0.00045689
     atom   11 type  1   force =    -0.00004130   -0.00002568    0.00009474
     atom   12 type  1   force =     0.00003759    0.00002217   -0.00039317
     atom   13 type  2   force =     0.00000358    0.00003149    0.00644441
     atom   14 type  3   force =    -0.00024011   -0.00012958    0.00376049
     The Hubbard contrib.    to forces
     atom    1 type  1   force =     0.00000000    0.00000000    0.00000000
     atom    2 type  1   force =     0.00000000    0.00000000    0.00000000
     atom    3 type  1   force =     0.00000000    0.00000000    0.00000000
     atom    4 type  1   force =     0.00000000    0.00000000    0.00000000
     atom    5 type  1   force =     0.00000000    0.00000000    0.00000000
     atom    6 type  1   force =     0.00000000    0.00000000    0.00000000
     atom    7 type  1   force =     0.00000000    0.00000000    0.00000000
     atom    8 type  1   force =     0.00000000    0.00000000    0.00000000
     atom    9 type  1   force =     0.00000000    0.00000000    0.00000000
     atom   10 type  1   force =     0.00000000    0.00000000    0.00000000
     atom   11 type  1   force =     0.00000000    0.00000000    0.00000000
     atom   12 type  1   force =     0.00000000    0.00000000    0.00000000
     atom   13 type  2   force =     0.00000000    0.00000000    0.00000000
     atom   14 type  3   force =     0.00000000    0.00000000    0.00000000
     The SCF correction term to forces
     atom    1 type  1   force =     0.00000000    0.00000000    0.00000000
     atom    2 type  1   force =     0.00005489    0.00004831    0.00367670
     atom    3 type  1   force =     0.00032943    0.00017785    0.00065813
     atom    4 type  1   force =     0.00000000    0.00000000    0.00000000
     atom    5 type  1   force =     0.00009576   -0.00012792    0.00336389
     atom    6 type  1   force =     0.00068178   -0.00076883    0.00119032
     atom    7 type  1   force =     0.00000000    0.00000000    0.00000000
     atom    8 type  1   force =    -0.00004924    0.00014159    0.00337392
     atom    9 type  1   force =    -0.00032560    0.00097979    0.00118383
     atom   10 type  1   force =     0.00000000    0.00000000    0.00000000
     atom   11 type  1   force =    -0.00013138   -0.00009731    0.00299519
     atom   12 type  1   force =    -0.00067454   -0.00037967    0.00127657
     atom   13 type  2   force =     0.00002951    0.00001878   -0.00059075
     atom   14 type  3   force =     0.00002405    0.00001694    0.00020091

     Total force =     0.004287     Total SCF correction =     0.007308
     SCF correction compared to forces is large: reduce conv_thr to get better values

     Writing all to output data dir ./output/opt.save/

     General routines

     Parallel routines

   This run was terminated on:  14:25: 7   4Jun2024

   JOB DONE.