     Program PWSCF v.7.2 starts on  4Jun2024 at 14:24:10

     Reading input from scf_none.in
Warning: card &CELL ignored
Warning: card / ignored

     Current dimensions of program PWSCF are:
     Max number of different atomic species (ntypx) = 10
     Max number of k-points (npk) =  40000
     Max angular momentum in pseudopotentials (lmaxx) =  4

     R & G space division:  proc/nbgrp/npool/nimage =      32
     Subspace diagonalization in iterative solution of the eigenvalue problem:
     a serial algorithm will be used

     Using Slab Decomposition

     bravais-lattice index     =            0
     lattice parameter (alat)  =       9.6476  a.u.
     unit-cell volume          =    4569.7547 (a.u.)^3
     number of atoms/cell      =           14
     number of atomic types    =            3
     number of electrons       =       238.00
     number of Kohn-Sham states=          143
     kinetic-energy cutoff     =      40.0000  Ry
     charge density cutoff     =     320.0000  Ry
     scf convergence threshold =      1.0E-06
     mixing beta               =       0.1000
     number of iterations used =            8  plain     mixing
     Exchange-correlation= SLA  PW   PBE  PBE
                           (   1   4   3   4   0   0   0)

     celldm(1)=   9.647639  celldm(2)=   0.000000  celldm(3)=   0.000000
     celldm(4)=   0.000000  celldm(5)=   0.000000  celldm(6)=   0.000000

     crystal axes: (cart. coord. in units of alat)
               a(1) = (   1.000000   0.000000   0.000000 )
               a(2) = (   0.500000   0.866025   0.000000 )
               a(3) = (   0.000000   0.000000   5.876234 )

     reciprocal axes: (cart. coord. in units 2 pi/alat)
               b(1) = (  1.000000 -0.577350  0.000000 )
               b(2) = (  0.000000  1.154701  0.000000 )
               b(3) = (  0.000000  0.000000  0.170177 )

     PseudoPot. # 1 for Cu read from file:
     ../../pseudo/cu_pbe_v1.2.uspp.F.UPF
     MD5 check sum: 6e991ff952a84172a2a52a1c1e996048
     Pseudo is Ultrasoft + core correction, Zval = 19.0
     Generated by new atomic code, or converted to UPF format
     Using radial grid of  867 points,  6 beta functions with:
                l(1) =   0
                l(2) =   0
                l(3) =   1
                l(4) =   1
                l(5) =   2
                l(6) =   2
     Q(r) pseudized with  8 coefficients,  rinner =    1.150   1.150   1.150
                                                       1.150   1.150

     PseudoPot. # 2 for O  read from file:
     ../../pseudo/o_pbe_v1.2.uspp.F.UPF
     MD5 check sum: 734c27235a0248c51dbae37a1fbe46ec
     Pseudo is Ultrasoft + core correction, Zval =  6.0
     Generated by new atomic code, or converted to UPF format
     Using radial grid of  737 points,  5 beta functions with:
                l(1) =   0
                l(2) =   0
                l(3) =   1
                l(4) =   1
                l(5) =   2
     Q(r) pseudized with  8 coefficients,  rinner =    0.900   0.900   0.900
                                                       0.900   0.900

     PseudoPot. # 3 for C  read from file:
     ../../pseudo/c_pbe_v1.2.uspp.F.UPF
     MD5 check sum: d1aef80898a10debaa0f26306b886e00
     Pseudo is Ultrasoft + core correction, Zval =  4.0
     Generated by new atomic code, or converted to UPF format
     Using radial grid of  721 points,  4 beta functions with:
                l(1) =   0
                l(2) =   0
                l(3) =   1
                l(4) =   1
     Q(r) pseudized with  8 coefficients,  rinner =    1.100   1.100   1.100

     atomic species   valence    mass     pseudopotential
        Cu            19.00    63.54600     Cu( 1.00)
        O              6.00    15.99900     O ( 1.00)
        C              4.00    12.01100     C ( 1.00)

     No symmetry found

   Cartesian axes

     site n.     atom                  positions (alat units)
         1           Cu  tau(   1) = (   0.1250000   0.0721688  -0.3917489  )
         2           Cu  tau(   2) = (   0.6303651   0.3620439   0.0093767  )
         3           Cu  tau(   3) = (   0.3908697   0.2225165   0.4072039  )
         4           Cu  tau(   4) = (   0.3750000   0.5051815  -0.3917489  )
         5           Cu  tau(   5) = (   0.8810586   0.7929929   0.0121369  )
         6           Cu  tau(   6) = (   0.6406493   0.6600251   0.4293002  )
         7           Cu  tau(   7) = (   0.6250000   0.0721688  -0.3917489  )
         8           Cu  tau(   8) = (   1.1289367   0.3637558   0.0124115  )
         9           Cu  tau(   9) = (   0.8944855   0.2208325   0.4305396  )
        10           Cu  tau(  10) = (   0.8750000   0.5051815  -0.3917489  )
        11           Cu  tau(  11) = (   1.3806944   0.7954917   0.0246836  )
        12           Cu  tau(  12) = (   1.1455917   0.6584810   0.4319321  )
        13           O   tau(  13) = (   0.8819856   0.5082280   0.9272744  )
        14           C   tau(  14) = (   0.8813532   0.5068991   0.6960150  )

     number of k points=     2  Methfessel-Paxton smearing, width (Ry)=  0.0100
                       cart. coord. in units 2pi/alat
        k(    1) = (   0.2500000   0.1443376   0.0000000), wk =   1.0000000
        k(    2) = (   0.2500000  -0.4330127   0.0000000), wk =   1.0000000

     Initial potential from superposition of free atoms

     starting charge     225.9999, renormalised to     238.0000

     negative rho (up, down):  4.013E-03 0.000E+00
     Starting wfcs are  164 randomized atomic wfcs

     Self-consistent Calculation

     iteration #  1     ecut=    40.00 Ry     beta= 0.10
     Davidson diagonalization with overlap
     ethr =  1.00E-02,  avg # of iterations =  8.0

     negative rho (up, down):  9.637E-04 0.000E+00

     total energy              =   -4813.96162094 Ry
     estimated scf accuracy    <     491.58740790 Ry

[...]

     WARNING: integrated charge=   238.00010448, expected=   238.00000000

[...]

     WARNING: integrated charge=   238.00002718, expected=   238.00000000

[...]

     iteration # 13     ecut=    40.00 Ry     beta= 0.10
     Davidson diagonalization with overlap
     c_bands:  1 eigenvalues not converged
     c_bands:  1 eigenvalues not converged
     ethr =  1.41E-06,  avg # of iterations = 20.0

[...]

     total energy              =   -4888.89320656 Ry
     estimated scf accuracy    <       0.00000246 Ry

     iteration # 20     ecut=    40.00 Ry     beta= 0.10
     Davidson diagonalization with overlap
     ethr =  1.03E-09,  avg # of iterations =  2.0

[...]

     End of self-consistent calculation

          k = 0.2500 0.1443 0.0000 ( 19495 PWs)   bands (ev):

  -113.0834-113.0773-113.0387-112.9281-112.8410-112.6879-112.6827-112.6649
  -112.6190-112.5544-112.5495-112.4629 -70.6292 -70.6006 -70.5518 -70.4394
   -70.4318 -70.3810 -70.3676 -70.3654 -70.3562 -70.3409 -70.3308 -70.2705
   -70.2520 -70.2336 -70.2114 -70.1287 -70.1127 -70.1030 -70.0936 -70.0681
   -70.0638 -70.0624 -70.0595 -70.0458 -70.0243 -70.0227 -70.0052 -69.9736
   -69.9502 -69.9411 -69.9331 -69.9041 -69.8997 -69.8952 -69.8433 -69.8352
   -23.5955 -10.7695  -8.4749  -7.6174  -7.1369  -7.0703  -6.1185  -5.5502
    -5.0703  -4.9509  -4.9488  -4.8373  -4.7307  -4.6878  -4.4483  -4.3804
    -4.3616  -4.2586  -4.2497  -4.1914  -3.8418  -3.8187  -3.7426  -3.6489
    -3.5310  -3.4393  -3.4172  -3.3747  -3.3657  -3.3480  -3.2986  -3.1979
    -3.1785  -3.1242  -3.0778  -3.0690  -3.0325  -3.0057  -2.9850  -2.8664
    -2.8059  -2.7821  -2.7123  -2.6720  -2.6153  -2.5695  -2.5236  -2.4714
    -2.4648  -2.4498  -2.3426  -2.2989  -2.2859  -2.1981  -2.1298  -2.0992
    -2.0888  -2.0668  -2.0191  -1.9826  -1.9722  -1.9332  -1.8993  -1.8726
    -1.8571  -1.8052  -1.7682  -1.7505  -1.2679  -0.6371  -0.4544  -0.0958
     0.2997   0.4959   0.9725   1.6729   2.1658   2.5313   3.1404   3.7743
     4.3968   4.7439   4.8452   4.9106   4.9707   5.4984   5.5750   5.7507
     6.0086   6.1050   6.6511   6.8179   6.9864   7.4847   8.0058

          k = 0.2500-0.4330 0.0000 ( 19534 PWs)   bands (ev):

  -113.0822-113.0785-113.0387-112.9280-112.8411-112.6862-112.6844-112.6647
  -112.6191-112.5527-112.5512-112.4629 -70.6173 -70.6116 -70.5513 -70.4370
   -70.4335 -70.3726 -70.3680 -70.3624 -70.3564 -70.3504 -70.3238 -70.2700
   -70.2521 -70.2430 -70.2112 -70.1141 -70.1080 -70.0944 -70.0815 -70.0794
   -70.0718 -70.0662 -70.0620 -70.0598 -70.0235 -70.0178 -69.9935 -69.9874
   -69.9496 -69.9438 -69.9357 -69.9025 -69.9013 -69.8952 -69.8448 -69.8352
   -23.5948 -10.6698  -7.8352  -7.4019  -7.1179  -7.0929  -5.9844  -5.9517
    -5.5233  -4.8684  -4.7890  -4.5566  -4.4456  -4.3509  -4.2598  -4.2408
    -4.1594  -4.0653  -3.9942  -3.9637  -3.8586  -3.8145  -3.7959  -3.7119
    -3.6985  -3.6609  -3.5772  -3.5232  -3.4815  -3.4413  -3.3311  -3.3095
    -3.2847  -3.2403  -3.2290  -3.1808  -3.1408  -3.1051  -3.0657  -3.0226
    -2.9523  -2.9008  -2.8939  -2.8738  -2.7655  -2.7235  -2.6784  -2.6483
    -2.6215  -2.5444  -2.5263  -2.4625  -2.4174  -2.3304  -2.3261  -2.2649
    -2.2188  -2.1976  -2.1436  -2.0787  -2.0102  -1.9740  -1.9638  -1.9403
    -1.9174  -1.8819  -1.7923  -1.7295  -1.5874  -1.3540  -0.8886   0.0801
     0.5323   1.1317   1.9723   2.1274   2.6513   2.7576   3.2250   3.8878
     4.8537   5.1691   5.2681   5.8302   5.8848   6.0227   6.2220   6.5465
     6.6617   6.9314   6.9704   7.6226   7.6641   7.7182   7.8063

     the Fermi energy is    -0.2755 ev

!    total energy              =   -4888.89324103 Ry
     estimated scf accuracy    <       0.00000075 Ry
     smearing contrib. (-TS)   =       0.00126393 Ry
     internal energy E=F+TS    =   -4888.89450496 Ry

     The total energy is F=E-TS. E is the sum of the following terms:
     one-electron contribution =  -54526.58785304 Ry
     hartree contribution      =   27267.33248130 Ry
     xc contribution           =    -476.15804985 Ry
     ewald contribution        =   22846.51891662 Ry

     convergence has been achieved in  20 iterations

     negative rho (up, down):  1.940E-03 0.000E+00

     Forces acting on atoms (cartesian axes, Ry/au):

     atom    1 type  1   force =    -0.00144654   -0.00110726   -0.00154584
     atom    2 type  1   force =     0.00058799    0.00051396   -0.00060650
     atom    3 type  1   force =    -0.00001216    0.00037382    0.00073699
     atom    4 type  1   force =    -0.00070032    0.00050632    0.00057149
     atom    5 type  1   force =     0.00047841   -0.00060231   -0.00012041
     atom    6 type  1   force =     0.00065870    0.00016637   -0.00038042
     atom    7 type  1   force =     0.00027727   -0.00109521    0.00025717
     atom    8 type  1   force =    -0.00049078    0.00105551   -0.00005453
     atom    9 type  1   force =     0.00037324    0.00051753   -0.00091203
     atom   10 type  1   force =    -0.00006041   -0.00049022    0.00237145
     atom   11 type  1   force =     0.00000986   -0.00003048   -0.00010951
     atom   12 type  1   force =    -0.00117500   -0.00052765   -0.00036114
     atom   13 type  2   force =     0.00089085    0.00038491    0.00064646
     atom   14 type  3   force =     0.00060890    0.00033470   -0.00049320
     The non-local contrib.  to forces
     atom    1 type  1   force =    -0.01521900   -0.00981896   -0.24681837
     atom    2 type  1   force =    -0.02215302   -0.01314056    0.00719200
     atom    3 type  1   force =     0.09163481    0.05256469    0.29653338
     atom    4 type  1   force =    -0.00960548    0.02498499   -0.27855921
     atom    5 type  1   force =    -0.05274096    0.05594183   -0.03610919
     atom    6 type  1   force =     0.14172032   -0.17312197    0.21841468
     atom    7 type  1   force =     0.01536057   -0.02070932   -0.27870695
     atom    8 type  1   force =     0.02146847   -0.07299223   -0.03472595
     atom    9 type  1   force =    -0.07897338    0.20818090    0.21876967
     atom   10 type  1   force =    -0.00832874   -0.00420633   -0.30998201
     atom   11 type  1   force =     0.03103637    0.01767061   -0.08182706
     atom   12 type  1   force =    -0.18225659   -0.10556599    0.22050848
     atom   13 type  2   force =    -0.00423290   -0.01224043   -2.28755053
     atom   14 type  3   force =     0.02119279    0.01496786    0.48482841
     The ionic contribution  to forces
     atom    1 type  1   force =    -0.64323978   -0.38395821 -371.49090868
     atom    2 type  1   force =     0.71663353    0.41853411  -24.44118466
     atom    3 type  1   force =     1.03071496    0.66023688  322.13901659
     atom    4 type  1   force =    -0.07104273    0.95118992 -371.80001731
     atom    5 type  1   force =    -0.06844534   -0.37995306  -22.99674277
     atom    6 type  1   force =    -4.06914940    1.03349791  330.99129080
     atom    7 type  1   force =     0.80686406   -0.56524434 -371.85339638
     atom    8 type  1   force =    -0.39310111    0.13456917  -22.72781986
     atom    9 type  1   force =    -1.11269641   -4.08249739  331.83110135
     atom   10 type  1   force =     0.18511374    0.06941140 -372.73217601
     atom   11 type  1   force =     0.09091135    0.08219159  -14.39620654
     atom   12 type  1   force =     3.53771597    2.01821860  333.84649315
     atom   13 type  2   force =    -0.01703660    0.04167376  157.62131553
     atom   14 type  3   force =     0.00675776    0.00212965   96.00923477
     The local contribution  to forces
     atom    1 type  1   force =     0.65695743    0.39265838  371.73657781
     atom    2 type  1   force =    -0.69420066   -0.40506155   24.43441476
     atom    3 type  1   force =    -1.12210929   -0.71228015 -322.43616082
     atom    4 type  1   force =     0.07980332   -0.97549848  372.07935534
     atom    5 type  1   force =     0.12139440    0.32404070   23.03329022
     atom    6 type  1   force =     3.92785461   -0.86059576 -331.20971747
     atom    7 type  1   force =    -0.82185391    0.58465928  372.13253277
     atom    8 type  1   force =     0.37157948   -0.06105725   22.76300861
     atom    9 type  1   force =     1.19160743    3.87485257 -332.05038217
     atom   10 type  1   force =    -0.17661422   -0.06557245  373.04429207
     atom   11 type  1   force =    -0.12173101   -0.09977772   14.47822536
     atom   12 type  1   force =    -3.35642539   -1.91308162 -334.06671982
     atom   13 type  2   force =     0.02213684   -0.02909162 -155.34006761
     atom   14 type  3   force =    -0.02711683   -0.01664458  -96.49851225
     The core correction contribution to forces
     atom    1 type  1   force =     0.00000275    0.00000077    0.00022705
     atom    2 type  1   force =    -0.00002892   -0.00001818   -0.00004958
     atom    3 type  1   force =    -0.00005239   -0.00002938   -0.00029001
     atom    4 type  1   force =    -0.00001287   -0.00003037    0.00033408
     atom    5 type  1   force =     0.00004530   -0.00004927    0.00003029
     atom    6 type  1   force =     0.00008784    0.00008401   -0.00037685
     atom    7 type  1   force =    -0.00003153    0.00000694    0.00033307
     atom    8 type  1   force =    -0.00002130    0.00006604    0.00002871
     atom    9 type  1   force =     0.00011566    0.00003550   -0.00037898
     atom   10 type  1   force =    -0.00002319   -0.00001771    0.00045567
     atom   11 type  1   force =    -0.00004210   -0.00002612    0.00009340
     atom   12 type  1   force =     0.00003709    0.00002189   -0.00039388
     atom   13 type  2   force =     0.00000447    0.00003201    0.00641932
     atom   14 type  3   force =    -0.00024007   -0.00012962    0.00374858
     The Hubbard contrib.    to forces
     atom    1 type  1   force =     0.00000000    0.00000000    0.00000000
     atom    2 type  1   force =     0.00000000    0.00000000    0.00000000
     atom    3 type  1   force =     0.00000000    0.00000000    0.00000000
     atom    4 type  1   force =     0.00000000    0.00000000    0.00000000
     atom    5 type  1   force =     0.00000000    0.00000000    0.00000000
     atom    6 type  1   force =     0.00000000    0.00000000    0.00000000
     atom    7 type  1   force =     0.00000000    0.00000000    0.00000000
     atom    8 type  1   force =     0.00000000    0.00000000    0.00000000
     atom    9 type  1   force =     0.00000000    0.00000000    0.00000000
     atom   10 type  1   force =     0.00000000    0.00000000    0.00000000
     atom   11 type  1   force =     0.00000000    0.00000000    0.00000000
     atom   12 type  1   force =     0.00000000    0.00000000    0.00000000
     atom   13 type  2   force =     0.00000000    0.00000000    0.00000000
     atom   14 type  3   force =     0.00000000    0.00000000    0.00000000
     The SCF correction term to forces
     atom    1 type  1   force =     0.00000000    0.00000000    0.00000000
     atom    2 type  1   force =     0.00033745    0.00020128   -0.00116628
     atom    3 type  1   force =    -0.00019986   -0.00011708    0.00145062
     atom    4 type  1   force =     0.00000000    0.00000000    0.00000000
     atom    5 type  1   force =     0.00022541   -0.00058139   -0.00077620
     atom    6 type  1   force =     0.00014574    0.00030331   -0.00017883
     atom    7 type  1   force =     0.00000000    0.00000000    0.00000000
     atom    8 type  1   force =    -0.00041593    0.00047091   -0.00073329
     atom    9 type  1   force =     0.00032034   -0.00005291   -0.00020916
     atom   10 type  1   force =     0.00000000    0.00000000    0.00000000
     atom   11 type  1   force =    -0.00016436   -0.00008771   -0.00058193
     atom   12 type  1   force =    -0.00024567   -0.00011941   -0.00043633
     atom   13 type  2   force =     0.00001943    0.00001231    0.00034249
     atom   14 type  3   force =     0.00001564    0.00001253    0.00002004

     Total force =     0.003059     Total SCF correction =     0.002578
     SCF correction compared to forces is large: reduce conv_thr to get better values

     Writing all to output data dir ./output/opt.save/

     General routines

     Parallel routines

   This run was terminated on:  14:24:31   4Jun2024

   JOB DONE.