     Program PWSCF v.7.2 starts on  5Jun2024 at  0:23: 2

     Reading input from scf_bc2.in
Warning: card &CELL ignored
Warning: card / ignored

     Current dimensions of program PWSCF are:
     Max number of different atomic species (ntypx) = 10
     Max number of k-points (npk) =  40000
     Max angular momentum in pseudopotentials (lmaxx) =  4

     R & G space division:  proc/nbgrp/npool/nimage =      32
     Subspace diagonalization in iterative solution of the eigenvalue problem:
     a serial algorithm will be used

     Using Slab Decomposition

     bravais-lattice index     =            0
     lattice parameter (alat)  =       9.6476  a.u.
     unit-cell volume          =    4569.7547 (a.u.)^3
     number of atoms/cell      =           14
     number of atomic types    =            3
     number of electrons       =       238.00
     number of Kohn-Sham states=          143
     kinetic-energy cutoff     =      40.0000  Ry
     charge density cutoff     =     320.0000  Ry
     scf convergence threshold =      1.0E-06
     mixing beta               =       0.1000
     number of iterations used =            8  plain     mixing
     Exchange-correlation= SLA  PW   PBE  PBE
                           (   1   4   3   4   0   0   0)

     Effective Screening Medium Method
     Boundary Conditions: Metal-Slab-Metal
     total charge in unit cell        =   0.0000
     field strength                   =   0.0100 Ry/a.u.
     grid points for fit at edges     =        4

     celldm(1)=   9.647639  celldm(2)=   0.000000  celldm(3)=   0.000000
     celldm(4)=   0.000000  celldm(5)=   0.000000  celldm(6)=   0.000000

     crystal axes: (cart. coord. in units of alat)
               a(1) = (   1.000000   0.000000   0.000000 )
               a(2) = (   0.500000   0.866025   0.000000 )
               a(3) = (   0.000000   0.000000   5.876234 )

     reciprocal axes: (cart. coord. in units 2 pi/alat)
               b(1) = (  1.000000 -0.577350  0.000000 )
               b(2) = (  0.000000  1.154701  0.000000 )
               b(3) = (  0.000000  0.000000  0.170177 )

     PseudoPot. # 1 for Cu read from file:
     ../../pseudo/cu_pbe_v1.2.uspp.F.UPF
     MD5 check sum: 6e991ff952a84172a2a52a1c1e996048
     Pseudo is Ultrasoft + core correction, Zval = 19.0
     Generated by new atomic code, or converted to UPF format
     Using radial grid of  867 points,  6 beta functions with:
                l(1) =   0
                l(2) =   0
                l(3) =   1
                l(4) =   1
                l(5) =   2
                l(6) =   2
     Q(r) pseudized with  8 coefficients,  rinner =    1.150   1.150   1.150
                                                       1.150   1.150

     PseudoPot. # 2 for O  read from file:
     ../../pseudo/o_pbe_v1.2.uspp.F.UPF
     MD5 check sum: 734c27235a0248c51dbae37a1fbe46ec
     Pseudo is Ultrasoft + core correction, Zval =  6.0
     Generated by new atomic code, or converted to UPF format
     Using radial grid of  737 points,  5 beta functions with:
                l(1) =   0
                l(2) =   0
                l(3) =   1
                l(4) =   1
                l(5) =   2
     Q(r) pseudized with  8 coefficients,  rinner =    0.900   0.900   0.900
                                                       0.900   0.900

     PseudoPot. # 3 for C  read from file:
     ../../pseudo/c_pbe_v1.2.uspp.F.UPF
     MD5 check sum: d1aef80898a10debaa0f26306b886e00
     Pseudo is Ultrasoft + core correction, Zval =  4.0
     Generated by new atomic code, or converted to UPF format
     Using radial grid of  721 points,  4 beta functions with:
                l(1) =   0
                l(2) =   0
                l(3) =   1
                l(4) =   1
     Q(r) pseudized with  8 coefficients,  rinner =    1.100   1.100   1.100

     atomic species   valence    mass     pseudopotential
        Cu            19.00    63.54600     Cu( 1.00)
        O              6.00    15.99900     O ( 1.00)
        C              4.00    12.01100     C ( 1.00)

     No symmetry found

   Cartesian axes

     site n.     atom                  positions (alat units)
         1           Cu  tau(   1) = (   0.1250000   0.0721688  -0.3917489  )
         2           Cu  tau(   2) = (   0.6303651   0.3620439   0.0093767  )
         3           Cu  tau(   3) = (   0.3908697   0.2225165   0.4072039  )
         4           Cu  tau(   4) = (   0.3750000   0.5051815  -0.3917489  )
         5           Cu  tau(   5) = (   0.8810586   0.7929929   0.0121369  )
         6           Cu  tau(   6) = (   0.6406493   0.6600251   0.4293002  )
         7           Cu  tau(   7) = (   0.6250000   0.0721688  -0.3917489  )
         8           Cu  tau(   8) = (   1.1289367   0.3637558   0.0124115  )
         9           Cu  tau(   9) = (   0.8944855   0.2208325   0.4305396  )
        10           Cu  tau(  10) = (   0.8750000   0.5051815  -0.3917489  )
        11           Cu  tau(  11) = (   1.3806944   0.7954917   0.0246836  )
        12           Cu  tau(  12) = (   1.1455917   0.6584810   0.4319321  )
        13           O   tau(  13) = (   0.8819856   0.5082280   0.9272744  )
        14           C   tau(  14) = (   0.8813532   0.5068991   0.6960150  )

     number of k points=     2  Methfessel-Paxton smearing, width (Ry)=  0.0100
                       cart. coord. in units 2pi/alat
        k(    1) = (   0.2500000   0.1443376   0.0000000), wk =   1.0000000
        k(    2) = (   0.2500000  -0.4330127   0.0000000), wk =   1.0000000

     Initial potential from superposition of free atoms

     starting charge     225.9999, renormalised to     238.0000

     negative rho (up, down):  4.013E-03 0.000E+00
     Starting wfcs are  164 randomized atomic wfcs

     Self-consistent Calculation

     iteration #  1     ecut=    40.00 Ry     beta= 0.10
     Davidson diagonalization with overlap
     ethr =  1.00E-02,  avg # of iterations =  6.0

     negative rho (up, down):  2.089E-03 0.000E+00

     total energy              =   -4859.31862407 Ry
     estimated scf accuracy    <     216.99663948 Ry

     iteration #  2     ecut=    40.00 Ry     beta= 0.10
     Davidson diagonalization with overlap
     c_bands:  3 eigenvalues not converged
     c_bands:  3 eigenvalues not converged
     ethr =  1.00E-02,  avg # of iterations = 20.0

[...]

     iteration #  5     ecut=    40.00 Ry     beta= 0.10
     Davidson diagonalization with overlap
     ethr =  4.00E-03,  avg # of iterations = 10.0
     Minimization algorithm failed to find Fermi energy: reverting to bisection
     Possible cause: smearing is larger than the electronic band-gap.

[...]

     iteration # 26     ecut=    40.00 Ry     beta= 0.10
     Davidson diagonalization with overlap
     ethr =  1.87E-09,  avg # of iterations =  2.0

[...]

     total energy              =   -4888.89925717 Ry
     estimated scf accuracy    <       0.00000133 Ry

     iteration # 27     ecut=    40.00 Ry     beta= 0.10
     Davidson diagonalization with overlap
     c_bands:  1 eigenvalues not converged
     ethr =  5.57E-10,  avg # of iterations = 13.0

[...]

     End of self-consistent calculation

          k = 0.2500 0.1443 0.0000 ( 19495 PWs)   bands (ev):

  -114.2013-114.1951-114.1551-114.0350-113.9492-113.8040-113.7989-113.7731
  -113.7234-113.6666-113.6619-113.5720 -71.7483 -71.7199 -71.6711 -71.5562
   -71.5486 -71.4966 -71.4823 -71.4762 -71.4681 -71.4556 -71.4372 -71.3795
   -71.3599 -71.3406 -71.3213 -71.2375 -71.2277 -71.2186 -71.2076 -71.1841
   -71.1799 -71.1715 -71.1693 -71.1571 -71.1332 -71.1321 -71.1151 -71.0861
   -71.0570 -71.0502 -71.0462 -71.0155 -71.0112 -71.0042 -70.9506 -70.9463
   -24.7832 -11.9280  -9.6118  -8.8072  -8.3174  -8.2529  -7.2353  -6.6633
    -6.1828  -6.0652  -6.0604  -5.9515  -5.8441  -5.8013  -5.5609  -5.4927
    -5.4747  -5.3706  -5.3621  -5.3052  -4.9537  -4.9336  -4.8563  -4.7628
    -4.6454  -4.5556  -4.5302  -4.4874  -4.4839  -4.4597  -4.4104  -4.3122
    -4.2902  -4.2359  -4.1898  -4.1809  -4.1451  -4.1179  -4.0971  -3.9789
    -3.9195  -3.8948  -3.8254  -3.7875  -3.7294  -3.6821  -3.6316  -3.5819
    -3.5753  -3.5609  -3.4499  -3.4086  -3.3978  -3.3114  -3.2401  -3.2105
    -3.1991  -3.1794  -3.1307  -3.0938  -3.0817  -3.0450  -3.0097  -2.9839
    -2.9672  -2.9165  -2.8782  -2.8636  -2.3815  -1.7404  -1.5720  -1.1914
    -0.8240  -0.6093  -0.1456   0.5465   1.0455   1.3958   1.6917   2.0195
     2.6677   2.9165   3.6381   3.6508   3.7860   4.2085   4.4423   4.9302
     5.0029   5.1447   5.5388   5.5923   6.0122   6.3454   6.5488

          k = 0.2500-0.4330 0.0000 ( 19534 PWs)   bands (ev):

  -114.2001-114.1964-114.1551-114.0349-113.9492-113.8023-113.8006-113.7730
  -113.7235-113.6648-113.6637-113.5720 -71.7366 -71.7309 -71.6706 -71.5538
   -71.5504 -71.4867 -71.4828 -71.4733 -71.4706 -71.4652 -71.4286 -71.3790
   -71.3600 -71.3502 -71.3210 -71.2262 -71.2223 -71.2063 -71.1965 -71.1934
   -71.1852 -71.1810 -71.1732 -71.1686 -71.1326 -71.1250 -71.1062 -71.0996
   -71.0567 -71.0546 -71.0468 -71.0138 -71.0130 -71.0042 -70.9521 -70.9462
   -24.7825 -11.8326  -9.0175  -8.5656  -8.2982  -8.2536  -7.0989  -7.0675
    -6.6376  -5.9822  -5.9019  -5.6697  -5.5585  -5.4640  -5.3721  -5.3543
    -5.2713  -5.1773  -5.1071  -5.0773  -4.9696  -4.9269  -4.9077  -4.8253
    -4.8136  -4.7736  -4.6913  -4.6353  -4.5965  -4.5604  -4.4437  -4.4220
    -4.3984  -4.3533  -4.3437  -4.2903  -4.2522  -4.2156  -4.1763  -4.1344
    -4.0666  -4.0115  -4.0033  -3.9856  -3.8745  -3.8378  -3.7923  -3.7597
    -3.7314  -3.6557  -3.6399  -3.5750  -3.5272  -3.4415  -3.4372  -3.3763
    -3.3290  -3.3104  -3.2549  -3.1899  -3.1205  -3.0861  -3.0757  -3.0502
    -3.0288  -2.9934  -2.9041  -2.8411  -2.6985  -2.4662  -2.0010  -1.0308
    -0.5916   0.0332   0.8529   1.0159   1.5198   1.6555   2.1162   2.6525
     2.7867   3.6933   3.9032   4.0583   4.5126   4.5757   4.5779   4.8469
     5.1225   5.2374   5.6431   5.7283   6.0399   6.1601   6.2034

     the Fermi energy is    -1.3820 ev

!    total energy              =   -4888.89926442 Ry
     estimated scf accuracy    <       0.00000053 Ry
     smearing contrib. (-TS)   =       0.00120133 Ry
     internal energy E=F+TS    =   -4888.90046575 Ry

     The total energy is F=E-TS. E is the sum of the following terms:
     one-electron contribution = -217289.56286336 Ry
     hartree contribution      =  108639.06967395 Ry
     xc contribution           =    -476.17470351 Ry
     ewald contribution        =  104237.76742716 Ry

     convergence has been achieved in  27 iterations

     negative rho (up, down):  1.954E-03 0.000E+00

     Forces acting on atoms (cartesian axes, Ry/au):

     atom    1 type  1   force =    -0.00162918   -0.00118076   -0.00138799
     atom    2 type  1   force =     0.00093547    0.00062700   -0.00102173
     atom    3 type  1   force =    -0.00004103    0.00038901    0.00040654
     atom    4 type  1   force =    -0.00039507    0.00053956    0.00072928
     atom    5 type  1   force =     0.00064959   -0.00103512   -0.00035914
     atom    6 type  1   force =     0.00080659    0.00015200   -0.00002028
     atom    7 type  1   force =     0.00046340   -0.00082431    0.00046666
     atom    8 type  1   force =    -0.00083739    0.00139700   -0.00025284
     atom    9 type  1   force =     0.00046195    0.00067492   -0.00057475
     atom   10 type  1   force =    -0.00042668   -0.00074597    0.00270830
     atom   11 type  1   force =    -0.00037234   -0.00017723   -0.00036826
     atom   12 type  1   force =    -0.00139333   -0.00070561   -0.00028558
     atom   13 type  2   force =     0.00065141    0.00028620    0.01146408
     atom   14 type  3   force =     0.00112662    0.00060329   -0.01287418
     The non-local contrib.  to forces
     atom    1 type  1   force =    -0.01701905   -0.01076514   -0.25396887
     atom    2 type  1   force =    -0.02272615   -0.01346313    0.00450332
     atom    3 type  1   force =     0.09084954    0.05210720    0.29340328
     atom    4 type  1   force =    -0.00856390    0.02654293   -0.28448452
     atom    5 type  1   force =    -0.05480622    0.05742435   -0.03713539
     atom    6 type  1   force =     0.14038408   -0.17301397    0.21086056
     atom    7 type  1   force =     0.01732032   -0.02059085   -0.28466166
     atom    8 type  1   force =     0.02170762   -0.07555507   -0.03585842
     atom    9 type  1   force =    -0.07956977    0.20700088    0.21123230
     atom   10 type  1   force =    -0.00918760   -0.00474044   -0.31658894
     atom   11 type  1   force =     0.03339005    0.01910736   -0.08096906
     atom   12 type  1   force =    -0.18109625   -0.10488593    0.21760200
     atom   13 type  2   force =    -0.00508720   -0.01267017   -2.24604939
     atom   14 type  3   force =     0.02134409    0.01508053    0.48951668
     The ionic contribution  to forces
     atom    1 type  1   force =    -0.64323978   -0.38395821 -465.67626388
     atom    2 type  1   force =     0.71663353    0.41853411  -22.38137120
     atom    3 type  1   force =     1.03071496    0.66023688  419.65259599
     atom    4 type  1   force =    -0.07104273    0.95118992 -465.98537251
     atom    5 type  1   force =    -0.06844534   -0.37995306  -20.27464541
     atom    6 type  1   force =    -4.06914940    1.03349791  433.80663008
     atom    7 type  1   force =     0.80686406   -0.56524434 -466.03875159
     atom    8 type  1   force =    -0.39310111    0.13456917  -19.93983496
     atom    9 type  1   force =    -1.11269641   -4.08249739  434.94380390
     atom   10 type  1   force =     0.18511374    0.06941140 -466.91753121
     atom   11 type  1   force =     0.09091135    0.08219159   -8.66367889
     atom   12 type  1   force =     3.53771597    2.01821860  437.29330205
     atom   13 type  2   force =    -0.01703660    0.04167376  227.82072491
     atom   14 type  3   force =     0.00675776    0.00212965  131.12718927
     The local contribution  to forces
     atom    1 type  1   force =     0.65907564    0.39375797  465.92903156
     atom    2 type  1   force =    -0.69374612   -0.40472246   22.37673035
     atom    3 type  1   force =    -1.12129326   -0.71181423 -419.94568205
     atom    4 type  1   force =     0.07850238   -0.97725372  466.27034176
     atom    5 type  1   force =     0.12351093    0.32255543   20.31152168
     atom    6 type  1   force =     3.92941102   -0.86083981 -434.01656792
     atom    7 type  1   force =    -0.82412324    0.58438247  466.32354149
     atom    8 type  1   force =     0.37142583   -0.05843614   19.97545162
     atom    9 type  1   force =     1.19218668    3.87627657 -435.15459278
     atom   10 type  1   force =    -0.17550093   -0.06484423  467.23604410
     atom   11 type  1   force =    -0.12424189   -0.10136258    8.74420357
     atom   12 type  1   force =    -3.35802523   -1.91398209 -437.50992528
     atom   13 type  2   force =     0.02275899   -0.02876714 -225.56948932
     atom   14 type  3   force =    -0.02675475   -0.01649146 -131.63329714
     The core correction contribution to forces
     atom    1 type  1   force =     0.00000540    0.00000242    0.00022325
     atom    2 type  1   force =    -0.00002791   -0.00001757   -0.00005051
     atom    3 type  1   force =    -0.00005198   -0.00002908   -0.00029103
     atom    4 type  1   force =    -0.00001364   -0.00003261    0.00032764
     atom    5 type  1   force =     0.00004846   -0.00005267    0.00002696
     atom    6 type  1   force =     0.00008937    0.00008357   -0.00037508
     atom    7 type  1   force =    -0.00003379    0.00000707    0.00032667
     atom    8 type  1   force =    -0.00002256    0.00007014    0.00002548
     atom    9 type  1   force =     0.00011615    0.00003709   -0.00037735
     atom   10 type  1   force =    -0.00002229   -0.00001702    0.00044822
     atom   11 type  1   force =    -0.00004742   -0.00002898    0.00008698
     atom   12 type  1   force =     0.00003350    0.00001981   -0.00039785
     atom   13 type  2   force =     0.00001222    0.00003604    0.00617437
     atom   14 type  3   force =    -0.00024130   -0.00013080    0.00366451
     The Hubbard contrib.    to forces
     atom    1 type  1   force =     0.00000000    0.00000000    0.00000000
     atom    2 type  1   force =     0.00000000    0.00000000    0.00000000
     atom    3 type  1   force =     0.00000000    0.00000000    0.00000000
     atom    4 type  1   force =     0.00000000    0.00000000    0.00000000
     atom    5 type  1   force =     0.00000000    0.00000000    0.00000000
     atom    6 type  1   force =     0.00000000    0.00000000    0.00000000
     atom    7 type  1   force =     0.00000000    0.00000000    0.00000000
     atom    8 type  1   force =     0.00000000    0.00000000    0.00000000
     atom    9 type  1   force =     0.00000000    0.00000000    0.00000000
     atom   10 type  1   force =     0.00000000    0.00000000    0.00000000
     atom   11 type  1   force =     0.00000000    0.00000000    0.00000000
     atom   12 type  1   force =     0.00000000    0.00000000    0.00000000
     atom   13 type  2   force =     0.00000000    0.00000000    0.00000000
     atom   14 type  3   force =     0.00000000    0.00000000    0.00000000
     The SCF correction term to forces
     atom    1 type  1   force =     0.00000000    0.00000000    0.00000000
     atom    2 type  1   force =     0.00079433    0.00029067   -0.00083369
     atom    3 type  1   force =    -0.00026808   -0.00011714    0.00038034
     atom    4 type  1   force =     0.00000000    0.00000000    0.00000000
     atom    5 type  1   force =     0.00033397   -0.00101456   -0.00012699
     atom    6 type  1   force =     0.00006372    0.00041890   -0.00056792
     atom    7 type  1   force =     0.00000000    0.00000000    0.00000000
     atom    8 type  1   force =    -0.00085496    0.00074352   -0.00003657
     atom    9 type  1   force =     0.00041750   -0.00014762   -0.00064082
     atom   10 type  1   force =     0.00000000    0.00000000    0.00000000
     atom   11 type  1   force =    -0.00039222   -0.00008999   -0.00001086
     atom   12 type  1   force =    -0.00002911   -0.00008138   -0.00086650
     atom   13 type  2   force =    -0.00000380    0.00000834    0.00010351
     atom   14 type  3   force =     0.00001303    0.00000998    0.00005251

     Total force =     0.017629     Total SCF correction =     0.002475
     SCF correction compared to forces is large: reduce conv_thr to get better values

     Writing all to output data dir ./output/opt.save/

     General routines

     Parallel routines

   This run was terminated on:   0:23:37   5Jun2024

   JOB DONE.