     Program PWSCF v.7.3.1 starts on  9Jun2024 at 16:16:47

     Reading input from scf.in
Warning: card &CELL ignored
Warning: card / ignored

     Current dimensions of program PWSCF are:
     Max number of different atomic species (ntypx) = 10
     Max number of k-points (npk) =  40000
     Max angular momentum in pseudopotentials (lmaxx) =  4

     Reading input from environ.in:
     * using full solvent mode
     * setting boundary derivatives method to SCCS default
     * setting electrolyte-boundary derivatives method to SCCS default

     R & G space division:  proc/nbgrp/npool/nimage =      32
     Subspace diagonalization in iterative solution of the eigenvalue problem:
     a serial algorithm will be used

     Using Slab Decomposition

     bravais-lattice index     =            0
     lattice parameter (alat)  =       9.6476  a.u.
     unit-cell volume          =    4569.7547 (a.u.)^3
     number of atoms/cell      =           14
     number of atomic types    =            3
     number of electrons       =       238.10
     number of Kohn-Sham states=          143
     kinetic-energy cutoff     =      40.0000  Ry
     charge density cutoff     =     320.0000  Ry
     scf convergence threshold =      1.0E-06
     mixing beta               =       0.0500
     number of iterations used =            8  plain     mixing
     Exchange-correlation= SLA  PW   PBE  PBE
                           (   1   4   3   4   0   0   0)

                                  Environ Setup Summary

          O. Andreussi, I. Dabo and N. Marzari, J. Chem. Phys. 136, 064102 (2012)
          F. Nattino, M. Truscott, N. Marzari, and O. Andreussi, J. Chem. Phys. 150, 041722 (2019)

     in publications or presentations arising from this work.

     Parameters

     compensation onset threshold      =               0.1000E+03
     static permittivity               =                    80.00

     Solvent Boundary

     solvent mode                      =                     full
     derivatives method                =                    chain
     electrolyte derivatives method    =                    chain
     numerical core for derivatives    =                      fft
     switching function adopted        =                     SCCS
     density limit for vacuum region   =               0.5000E-02
     density limit for bulk solvent    =               0.1000E-03

     Electrostatic Setup

     electrostatic problem to solve    =                    modpb
     numerical solver adopted          =                   newton
     type of auxiliary density adopted =                     none
     numerical core for poisson        =                      fft
     adopting a nested solver scheme
     inner solver                      =                       cg
     inner core                        =                      fft
     type of pbc corrections           =                parabolic
     numerical core for corrections    =                      1da

     celldm(1)=   9.647639  celldm(2)=   0.000000  celldm(3)=   0.000000
     celldm(4)=   0.000000  celldm(5)=   0.000000  celldm(6)=   0.000000

     crystal axes: (cart. coord. in units of alat)
               a(1) = (   1.000000   0.000000   0.000000 )
               a(2) = (   0.500000   0.866025   0.000000 )
               a(3) = (   0.000000   0.000000   5.876234 )

     reciprocal axes: (cart. coord. in units 2 pi/alat)
               b(1) = (  1.000000 -0.577350  0.000000 )
               b(2) = (  0.000000  1.154701  0.000000 )
               b(3) = (  0.000000  0.000000  0.170177 )

     PseudoPot. # 1 for Cu read from file:
     ../../pseudo/cu_pbe_v1.2.uspp.F.UPF
     MD5 check sum: 6e991ff952a84172a2a52a1c1e996048
     Pseudo is Ultrasoft + core correction, Zval = 19.0
     Generated by new atomic code, or converted to UPF format
     Using radial grid of  867 points,  6 beta functions with:
                l(1) =   0
                l(2) =   0
                l(3) =   1
                l(4) =   1
                l(5) =   2
                l(6) =   2
     Q(r) pseudized with  8 coefficients,  rinner =    1.150   1.150   1.150
                                                       1.150   1.150

     PseudoPot. # 2 for O  read from file:
     ../../pseudo/o_pbe_v1.2.uspp.F.UPF
     MD5 check sum: 734c27235a0248c51dbae37a1fbe46ec
     Pseudo is Ultrasoft + core correction, Zval =  6.0
     Generated by new atomic code, or converted to UPF format
     Using radial grid of  737 points,  5 beta functions with:
                l(1) =   0
                l(2) =   0
                l(3) =   1
                l(4) =   1
                l(5) =   2
     Q(r) pseudized with  8 coefficients,  rinner =    0.900   0.900   0.900
                                                       0.900   0.900

     PseudoPot. # 3 for C  read from file:
     ../../pseudo/c_pbe_v1.2.uspp.F.UPF
     MD5 check sum: d1aef80898a10debaa0f26306b886e00
     Pseudo is Ultrasoft + core correction, Zval =  4.0
     Generated by new atomic code, or converted to UPF format
     Using radial grid of  721 points,  4 beta functions with:
                l(1) =   0
                l(2) =   0
                l(3) =   1
                l(4) =   1
     Q(r) pseudized with  8 coefficients,  rinner =    1.100   1.100   1.100

     atomic species   valence    mass     pseudopotential
     Cu               19.00    63.54600     Cu( 1.00)
     O                 6.00    15.99900     O ( 1.00)
     C                 4.00    12.01100     C ( 1.00)

     No symmetry found

   Cartesian axes

     site n.     atom                  positions (alat units)
         1        Cu     tau(   1) = (   0.1250000   0.0721688   2.5267805  )
         2        Cu     tau(   2) = (   0.6303651   0.3620439   2.9279060  )
         3        Cu     tau(   3) = (   0.3908697   0.2225165   3.3257332  )
         4        Cu     tau(   4) = (   0.3750000   0.5051815   2.5267805  )
         5        Cu     tau(   5) = (   0.8810586   0.7929929   2.9306663  )
         6        Cu     tau(   6) = (   0.6406493   0.6600251   3.3478296  )
         7        Cu     tau(   7) = (   0.6250000   0.0721688   2.5267805  )
         8        Cu     tau(   8) = (   1.1289367   0.3637558   2.9309409  )
         9        Cu     tau(   9) = (   0.8944855   0.2208325   3.3490690  )
        10        Cu     tau(  10) = (   0.8750000   0.5051815   2.5267805  )
        11        Cu     tau(  11) = (   1.3806944   0.7954917   2.9432130  )
        12        Cu     tau(  12) = (   1.1455917   0.6584810   3.3504614  )
        13        O      tau(  13) = (   0.8819856   0.5082280   3.8458037  )
        14        C      tau(  14) = (   0.8813532   0.5068991   3.6145444  )

     number of k points=     2  Methfessel-Paxton smearing, width (Ry)=  0.0100
                       cart. coord. in units 2pi/alat
        k(    1) = (   0.2500000   0.1443376   0.0000000), wk =   1.0000000
        k(    2) = (   0.2500000  -0.4330127   0.0000000), wk =   1.0000000

Environ Warning (1005): wrong integral of erfc function

     Initial potential from superposition of free atoms

     starting charge     225.9999, renormalised to     238.1000

     negative rho (up, down):  4.017E-03 0.000E+00
     Starting wfcs are  164 randomized atomic wfcs

     Self-consistent Calculation

     iteration #  1     ecut=    40.00 Ry     beta= 0.05
     Davidson diagonalization with overlap
     ethr =  1.00E-02,  avg # of iterations = 11.0

     negative rho (up, down):  8.746E-04 0.000E+00

     total energy              =   -4844.44500635 Ry
     estimated scf accuracy    <     653.46966409 Ry
     electrostatic embedding   =      -0.00818095 Ry
     electrolyte free energy   =       0.00172904 Ry
     correction to one-el term =       0.00000000 Ry

[...]

     add environment contribution to local potential
     Polarization accuracy = 1.1E-18, # of iterations =  35
     Polarization accuracy = 6.7E-20, # of iterations =   1
     Electrolyte accuracy = 8.6E-20, # of iterations =   2

[...]

     iteration # 12     ecut=    40.00 Ry     beta= 0.05
     Davidson diagonalization with overlap
     ethr =  2.25E-05,  avg # of iterations = 10.0
     Minimization algorithm failed to find Fermi energy: reverting to bisection
     Possible cause: smearing is larger than the electronic band-gap.

[...]

     iteration # 18     ecut=    40.00 Ry     beta= 0.05
     Davidson diagonalization with overlap
     c_bands:  1 eigenvalues not converged
     ethr =  6.15E-07,  avg # of iterations = 15.0
     Minimization algorithm failed to find Fermi energy: reverting to bisection
     Possible cause: smearing is larger than the electronic band-gap.

[...]

     iteration # 22     ecut=    40.00 Ry     beta= 0.05
     Davidson diagonalization with overlap
     c_bands:  1 eigenvalues not converged
     ethr =  5.15E-08,  avg # of iterations = 11.5

[...]

     iteration # 58     ecut=    40.00 Ry     beta= 0.05
     Davidson diagonalization with overlap
     ethr =  4.35E-09,  avg # of iterations =  2.0
     Minimization algorithm failed to find Fermi energy: reverting to bisection
     Possible cause: smearing is larger than the electronic band-gap.

[...]

     add environment contribution to local potential
     Polarization accuracy = 9.3E-19, # of iterations =  40
     Polarization accuracy = 5.1E-20, # of iterations =   1
     Electrolyte accuracy = 8.8E-20, # of iterations =   2

     total energy              =   -4888.92759810 Ry
     estimated scf accuracy    <       0.00001389 Ry
     electrostatic embedding   =      -0.03844961 Ry
     electrolyte free energy   =       0.00172904 Ry
     correction to one-el term =      81.87803857 Ry

     iteration # 59     ecut=    40.00 Ry     beta= 0.05
     Davidson diagonalization with overlap
     ethr =  4.35E-09,  avg # of iterations =  1.0

[...]

     End of self-consistent calculation

          k = 0.2500 0.1443 0.0000 ( 19495 PWs)   bands (ev):

  -117.1821-117.1759-117.1324-116.9791-116.9024-116.7757-116.7706-116.7039
  -116.6711-116.6276-116.6229-116.5493 -74.7285 -74.7003 -74.6474 -74.5370
   -74.5293 -74.4760 -74.4635 -74.4483 -74.4360 -74.4094 -74.3852 -74.3285
   -74.3109 -74.2925 -74.2794 -74.1962 -74.1905 -74.1888 -74.1612 -74.1547
   -74.1489 -74.1394 -74.1105 -74.1023 -74.0827 -74.0671 -74.0606 -74.0438
   -74.0142 -74.0086 -74.0054 -73.9828 -73.9751 -73.9707 -73.9295 -73.9210
   -27.8302 -14.9471 -12.6046 -11.8464 -11.3514 -11.2927 -10.2081  -9.6236
    -9.1491  -9.0293  -9.0207  -8.9160  -8.8085  -8.7647  -8.5252  -8.4587
    -8.4392  -8.3310  -8.3193  -8.2678  -7.9153  -7.8997  -7.8205  -7.7302
    -7.6140  -7.5271  -7.4955  -7.4588  -7.4516  -7.4204  -7.3706  -7.2831
    -7.2479  -7.1960  -7.1537  -7.1379  -7.1110  -7.0830  -7.0574  -6.9373
    -6.8854  -6.8623  -6.7932  -6.7554  -6.6973  -6.6442  -6.5922  -6.5429
    -6.5364  -6.5224  -6.4168  -6.3736  -6.3630  -6.2776  -6.2008  -6.1762
    -6.1564  -6.1403  -6.0947  -6.0569  -6.0428  -6.0056  -5.9711  -5.9442
    -5.9300  -5.8710  -5.8461  -5.8286  -5.3587  -4.7255  -4.5458  -4.1718
    -3.8042  -3.6125  -3.1367  -2.4447  -1.9400  -1.5967  -0.9598  -0.3421
    -0.1610   0.0953   0.1896   0.6616   0.7468   0.8443   1.0809   1.4164
     1.9019   1.9649   2.1307   2.2263   2.6584   3.2103   3.7097

          k = 0.2500-0.4330 0.0000 ( 19534 PWs)   bands (ev):

  -117.1809-117.1771-117.1324-116.9790-116.9025-116.7740-116.7722-116.7038
  -116.6712-116.6259-116.6246-116.5493 -74.7168 -74.7112 -74.6470 -74.5346
   -74.5311 -74.4652 -74.4628 -74.4525 -74.4440 -74.4093 -74.3754 -74.3279
   -74.3111 -74.3029 -74.2790 -74.1896 -74.1878 -74.1702 -74.1649 -74.1561
   -74.1523 -74.1398 -74.1233 -74.1033 -74.0714 -74.0668 -74.0648 -74.0530
   -74.0177 -74.0114 -74.0035 -73.9828 -73.9736 -73.9724 -73.9309 -73.9209
   -27.8296 -14.8563 -12.0652 -11.5785 -11.3334 -11.2595 -10.0608 -10.0317
    -9.6044  -8.9461  -8.8655  -8.6351  -8.5218  -8.4275  -8.3375  -8.3218
    -8.2339  -8.1351  -8.0739  -8.0431  -7.9264  -7.8867  -7.8672  -7.7933
    -7.7826  -7.7351  -7.6627  -7.6014  -7.5641  -7.5372  -7.4133  -7.3830
    -7.3684  -7.3207  -7.3047  -7.2470  -7.2134  -7.1743  -7.1349  -7.0988
    -7.0319  -6.9729  -6.9561  -6.9505  -6.8333  -6.8075  -6.7592  -6.7195
    -6.6990  -6.6171  -6.6066  -6.5409  -6.4914  -6.4094  -6.3959  -6.3386
    -6.2915  -6.2725  -6.2176  -6.1534  -6.0793  -6.0521  -6.0361  -6.0108
    -5.9904  -5.9578  -5.8673  -5.8025  -5.6596  -5.4334  -4.9899  -4.0193
    -3.5912  -2.9934  -2.1521  -1.9523  -1.4913  -1.3406  -0.8631  -0.2346
     0.6567   0.7352   1.0583   1.0905   1.1272   1.7288   1.9068   2.0162
     2.1280   2.4578   2.5453   2.9225   2.9505   2.9888   3.0315

     the Fermi energy is    -4.2429 ev

!    total energy              =   -4888.92760629 Ry
     estimated scf accuracy    <       0.00000044 Ry
     smearing contrib. (-TS)   =       0.00002058 Ry
     internal energy E=F+TS    =   -4888.92762687 Ry

     The total energy is F=E-TS. E is the sum of the following terms:
     one-electron contribution =  -54618.72579826 Ry
     hartree contribution      =   27277.66524407 Ry
     xc contribution           =    -476.21035236 Ry
     ewald contribution        =   22846.51891662 Ry
     electrostatic embedding   =      -0.03846084 Ry
     electrolyte free energy   =       0.00172904 Ry
     correction to one-el term =      81.86109485 Ry

     WARNING: you are using the parabolic pbc correction;
              the potential shift above must be added to
              band and Fermi energies.

     convergence has been achieved in  59 iterations

     negative rho (up, down):  1.882E-03 0.000E+00

     Forces acting on atoms (cartesian axes, Ry/au):

     atom    1 type  1   force =    -0.00138992   -0.00100471   -0.00082804
     atom    2 type  1   force =     0.00057788    0.00050997    0.00105186
     atom    3 type  1   force =    -0.00005710    0.00035304    0.00146036
     atom    4 type  1   force =    -0.00082447    0.00073482    0.00136076
     atom    5 type  1   force =     0.00007325   -0.00007876    0.00046727
     atom    6 type  1   force =     0.00115343   -0.00002890    0.00193254
     atom    7 type  1   force =     0.00042275   -0.00137829    0.00102788
     atom    8 type  1   force =    -0.00021768    0.00042736    0.00053376
     atom    9 type  1   force =     0.00046864    0.00108027    0.00140243
     atom   10 type  1   force =    -0.00002861   -0.00046465    0.00122587
     atom   11 type  1   force =     0.00039263    0.00021878    0.00053370
     atom   12 type  1   force =    -0.00218255   -0.00114638    0.00073359
     atom   13 type  2   force =     0.00084215    0.00043363    0.01502993
     atom   14 type  3   force =     0.00076959    0.00034382   -0.02593191

     Total force =     0.030335     Total SCF correction =     0.005049
     SCF correction compared to forces is large: reduce conv_thr to get better values

     Writing all to output data dir ./output/opt.save/ :
     XML data file, charge density, pseudopotentials, collected wavefunctions

     General routines

     Parallel routines

     Environ routines

   This run was terminated on:  16:30:52   9Jun2024

   JOB DONE.