     Program PWSCF v.7.3.1 starts on  9Jun2024 at 16:20:26

     Reading input from scf.in
Warning: card &CELL ignored
Warning: card / ignored

     Current dimensions of program PWSCF are:
     Max number of different atomic species (ntypx) = 10
     Max number of k-points (npk) =  40000
     Max angular momentum in pseudopotentials (lmaxx) =  4

     Reading input from environ.in:
     * using full solvent mode
     * setting boundary derivatives method to SCCS default
     * setting electrolyte-boundary derivatives method to SCCS default

     R & G space division:  proc/nbgrp/npool/nimage =      32
     Subspace diagonalization in iterative solution of the eigenvalue problem:
     a serial algorithm will be used

     Using Slab Decomposition

     bravais-lattice index     =            0
     lattice parameter (alat)  =       9.6476  a.u.
     unit-cell volume          =    4569.7547 (a.u.)^3
     number of atoms/cell      =           14
     number of atomic types    =            3
     number of electrons       =       237.90
     number of Kohn-Sham states=          143
     kinetic-energy cutoff     =      40.0000  Ry
     charge density cutoff     =     320.0000  Ry
     scf convergence threshold =      1.0E-06
     mixing beta               =       0.0500
     number of iterations used =            8  plain     mixing
     Exchange-correlation= SLA  PW   PBE  PBE
                           (   1   4   3   4   0   0   0)

                                  Environ Setup Summary

          O. Andreussi, I. Dabo and N. Marzari, J. Chem. Phys. 136, 064102 (2012)
          F. Nattino, M. Truscott, N. Marzari, and O. Andreussi, J. Chem. Phys. 150, 041722 (2019)

     in publications or presentations arising from this work.

     Parameters

     compensation onset threshold      =               0.1000E+03
     static permittivity               =                    80.00

     Solvent Boundary

     solvent mode                      =                     full
     derivatives method                =                    chain
     electrolyte derivatives method    =                    chain
     numerical core for derivatives    =                      fft
     switching function adopted        =                     SCCS
     density limit for vacuum region   =               0.5000E-02
     density limit for bulk solvent    =               0.1000E-03

     Electrostatic Setup

     electrostatic problem to solve    =                    modpb
     numerical solver adopted          =                   newton
     type of auxiliary density adopted =                     none
     numerical core for poisson        =                      fft
     adopting a nested solver scheme
     inner solver                      =                       cg
     inner core                        =                      fft
     type of pbc corrections           =                parabolic
     numerical core for corrections    =                      1da

     celldm(1)=   9.647639  celldm(2)=   0.000000  celldm(3)=   0.000000
     celldm(4)=   0.000000  celldm(5)=   0.000000  celldm(6)=   0.000000

     crystal axes: (cart. coord. in units of alat)
               a(1) = (   1.000000   0.000000   0.000000 )
               a(2) = (   0.500000   0.866025   0.000000 )
               a(3) = (   0.000000   0.000000   5.876234 )

     reciprocal axes: (cart. coord. in units 2 pi/alat)
               b(1) = (  1.000000 -0.577350  0.000000 )
               b(2) = (  0.000000  1.154701  0.000000 )
               b(3) = (  0.000000  0.000000  0.170177 )

     PseudoPot. # 1 for Cu read from file:
     ../../pseudo/cu_pbe_v1.2.uspp.F.UPF
     MD5 check sum: 6e991ff952a84172a2a52a1c1e996048
     Pseudo is Ultrasoft + core correction, Zval = 19.0
     Generated by new atomic code, or converted to UPF format
     Using radial grid of  867 points,  6 beta functions with:
                l(1) =   0
                l(2) =   0
                l(3) =   1
                l(4) =   1
                l(5) =   2
                l(6) =   2
     Q(r) pseudized with  8 coefficients,  rinner =    1.150   1.150   1.150
                                                       1.150   1.150

     PseudoPot. # 2 for O  read from file:
     ../../pseudo/o_pbe_v1.2.uspp.F.UPF
     MD5 check sum: 734c27235a0248c51dbae37a1fbe46ec
     Pseudo is Ultrasoft + core correction, Zval =  6.0
     Generated by new atomic code, or converted to UPF format
     Using radial grid of  737 points,  5 beta functions with:
                l(1) =   0
                l(2) =   0
                l(3) =   1
                l(4) =   1
                l(5) =   2
     Q(r) pseudized with  8 coefficients,  rinner =    0.900   0.900   0.900
                                                       0.900   0.900

     PseudoPot. # 3 for C  read from file:
     ../../pseudo/c_pbe_v1.2.uspp.F.UPF
     MD5 check sum: d1aef80898a10debaa0f26306b886e00
     Pseudo is Ultrasoft + core correction, Zval =  4.0
     Generated by new atomic code, or converted to UPF format
     Using radial grid of  721 points,  4 beta functions with:
                l(1) =   0
                l(2) =   0
                l(3) =   1
                l(4) =   1
     Q(r) pseudized with  8 coefficients,  rinner =    1.100   1.100   1.100

     atomic species   valence    mass     pseudopotential
     Cu               19.00    63.54600     Cu( 1.00)
     O                 6.00    15.99900     O ( 1.00)
     C                 4.00    12.01100     C ( 1.00)

     No symmetry found

   Cartesian axes

     site n.     atom                  positions (alat units)
         1        Cu     tau(   1) = (   0.1250000   0.0721688   2.5267805  )
         2        Cu     tau(   2) = (   0.6303651   0.3620439   2.9279060  )
         3        Cu     tau(   3) = (   0.3908697   0.2225165   3.3257332  )
         4        Cu     tau(   4) = (   0.3750000   0.5051815   2.5267805  )
         5        Cu     tau(   5) = (   0.8810586   0.7929929   2.9306663  )
         6        Cu     tau(   6) = (   0.6406493   0.6600251   3.3478296  )
         7        Cu     tau(   7) = (   0.6250000   0.0721688   2.5267805  )
         8        Cu     tau(   8) = (   1.1289367   0.3637558   2.9309409  )
         9        Cu     tau(   9) = (   0.8944855   0.2208325   3.3490690  )
        10        Cu     tau(  10) = (   0.8750000   0.5051815   2.5267805  )
        11        Cu     tau(  11) = (   1.3806944   0.7954917   2.9432130  )
        12        Cu     tau(  12) = (   1.1455917   0.6584810   3.3504614  )
        13        O      tau(  13) = (   0.8819856   0.5082280   3.8458037  )
        14        C      tau(  14) = (   0.8813532   0.5068991   3.6145444  )

     number of k points=     2  Methfessel-Paxton smearing, width (Ry)=  0.0100
                       cart. coord. in units 2pi/alat
        k(    1) = (   0.2500000   0.1443376   0.0000000), wk =   1.0000000
        k(    2) = (   0.2500000  -0.4330127   0.0000000), wk =   1.0000000

Environ Warning (1005): wrong integral of erfc function

     Initial potential from superposition of free atoms

     starting charge     225.9999, renormalised to     237.9000

     negative rho (up, down):  4.013E-03 0.000E+00
     Starting wfcs are  164 randomized atomic wfcs

     Self-consistent Calculation

     iteration #  1     ecut=    40.00 Ry     beta= 0.05
     Davidson diagonalization with overlap
     ethr =  1.00E-02,  avg # of iterations = 10.5

     negative rho (up, down):  1.988E-03 0.000E+00

     total energy              =   -4866.12512058 Ry
     estimated scf accuracy    <     397.60110538 Ry
     electrostatic embedding   =       0.00818095 Ry
     electrolyte free energy   =       0.00172904 Ry
     correction to one-el term =       0.00000000 Ry

[...]

     add environment contribution to local potential
     Polarization accuracy = 6.4E-19, # of iterations =  34
     Polarization accuracy = 7.8E-20, # of iterations =   1
     Electrolyte accuracy = 1.9E-19, # of iterations =   2

[...]

     iteration #  5     ecut=    40.00 Ry     beta= 0.05
     Davidson diagonalization with overlap
     ethr =  5.92E-03,  avg # of iterations =  2.0
     Minimization algorithm failed to find Fermi energy: reverting to bisection
     Possible cause: smearing is larger than the electronic band-gap.

[...]

     iteration # 56     ecut=    40.00 Ry     beta= 0.05
     Davidson diagonalization with overlap
     ethr =  5.85E-09,  avg # of iterations =  1.0

[...]

     add environment contribution to local potential
     Polarization accuracy = 4.5E-18, # of iterations =  40
     Polarization accuracy = 2.1E-19, # of iterations =   1
     Electrolyte accuracy = 4.5E-19, # of iterations =   2

     total energy              =   -4888.86022237 Ry
     estimated scf accuracy    <       0.00000213 Ry
     electrostatic embedding   =       0.02394108 Ry
     electrolyte free energy   =       0.00172904 Ry
     correction to one-el term =      63.77400294 Ry

     iteration # 62     ecut=    40.00 Ry     beta= 0.05
     Davidson diagonalization with overlap
     ethr =  8.94E-10,  avg # of iterations =  2.0
     Minimization algorithm failed to find Fermi energy: reverting to bisection
     Possible cause: smearing is larger than the electronic band-gap.

[...]

     End of self-consistent calculation

          k = 0.2500 0.1443 0.0000 ( 19495 PWs)   bands (ev):

  -117.6343-117.6280-117.5436-117.4309-117.3467-117.2599-117.2549-117.1588
  -117.1069-117.0785-117.0738-116.9671 -75.1782 -75.1494 -75.0608 -74.9884
   -74.9792 -74.9275 -74.8947 -74.8761 -74.8718 -74.8604 -74.8354 -74.7769
   -74.7590 -74.7399 -74.7232 -74.6875 -74.6649 -74.6620 -74.6353 -74.6338
   -74.6323 -74.6112 -74.5667 -74.5462 -74.5351 -74.5209 -74.5081 -74.4991
   -74.4602 -74.4580 -74.4359 -74.4250 -74.4207 -74.3993 -74.3505 -74.3400
   -28.1516 -15.3240 -13.0214 -12.2051 -11.6717 -11.6151 -10.6406 -10.0787
    -9.5975  -9.4822  -9.4767  -9.3673  -9.2529  -9.2225  -8.9810  -8.9070
    -8.8944  -8.7831  -8.7644  -8.7166  -8.3550  -8.3426  -8.2654  -8.1773
    -8.0616  -7.9719  -7.9428  -7.9032  -7.8978  -7.8650  -7.8258  -7.7308
    -7.6998  -7.6435  -7.6098  -7.5848  -7.5593  -7.5401  -7.5021  -7.3856
    -7.3320  -7.2919  -7.2270  -7.2016  -7.1473  -7.0799  -7.0336  -6.9900
    -6.9734  -6.9692  -6.8487  -6.8114  -6.8091  -6.7267  -6.6418  -6.6223
    -6.6040  -6.5979  -6.5467  -6.5078  -6.4870  -6.4645  -6.4107  -6.3981
    -6.3665  -6.3267  -6.2911  -6.2822  -5.7602  -5.1332  -4.9959  -4.5895
    -4.2248  -3.9741  -3.5303  -2.8475  -2.3257  -1.9530  -1.3783  -0.7240
    -0.1582   0.1272   0.2394   0.2453   0.4183   0.8684   1.0283   1.1049
     1.5510   1.6427   2.1030   2.1638   2.4298   3.0003   3.5121

          k = 0.2500-0.4330 0.0000 ( 19534 PWs)   bands (ev):

  -117.6331-117.6292-117.5436-117.4309-117.3468-117.2583-117.2565-117.1587
  -117.1070-117.0769-117.0754-116.9671 -75.1659 -75.1605 -75.0605 -74.9854
   -74.9815 -74.9151 -74.9091 -74.8754 -74.8715 -74.8601 -74.8259 -74.7763
   -74.7589 -74.7501 -74.7213 -74.6683 -74.6658 -74.6599 -74.6557 -74.6359
   -74.6307 -74.5981 -74.5624 -74.5592 -74.5213 -74.5206 -74.5183 -74.5060
   -74.4664 -74.4555 -74.4357 -74.4235 -74.4222 -74.3993 -74.3520 -74.3400
   -28.1510 -15.2280 -12.4171 -11.9584 -11.6525 -11.6296 -10.5128 -10.4803
   -10.0454  -9.3942  -9.3159  -9.0843  -8.9742  -8.8797  -8.7881  -8.7731
    -8.6918  -8.5898  -8.5217  -8.4899  -8.3801  -8.3373  -8.3224  -8.2433
    -8.2321  -8.1842  -8.1086  -8.0481  -8.0097  -7.9738  -7.8498  -7.8290
    -7.8061  -7.7671  -7.7479  -7.6917  -7.6568  -7.6216  -7.5833  -7.5430
    -7.4707  -7.4200  -7.4040  -7.3961  -7.2839  -7.2524  -7.2050  -7.1675
    -7.1396  -7.0639  -7.0533  -6.9783  -6.9334  -6.8557  -6.8463  -6.7883
    -6.7393  -6.7180  -6.6644  -6.5982  -6.5256  -6.5019  -6.4840  -6.4562
    -6.4437  -6.4048  -6.3140  -6.2559  -6.1032  -5.8624  -5.3905  -4.4143
    -3.9699  -3.3569  -2.5255  -2.3874  -1.8391  -1.7401  -1.2570  -0.5545
     0.3850   0.6852   0.7358   1.0993   1.1799   1.4939   1.7236   1.8654
     1.9980   2.4385   2.4814   2.9362   2.9732   3.0025   3.0839

     the Fermi energy is    -4.9268 ev

!    total energy              =   -4888.86022801 Ry
     estimated scf accuracy    <       0.00000100 Ry
     smearing contrib. (-TS)   =       0.00001529 Ry
     internal energy E=F+TS    =   -4888.86024331 Ry

     The total energy is F=E-TS. E is the sum of the following terms:
     one-electron contribution =  -54574.84871679 Ry
     hartree contribution      =   27251.82062043 Ry
     xc contribution           =    -476.11914249 Ry
     ewald contribution        =   22846.51891662 Ry
     electrostatic embedding   =       0.02390865 Ry
     electrolyte free energy   =       0.00172904 Ry
     correction to one-el term =      63.74244123 Ry

     WARNING: you are using the parabolic pbc correction;
              the potential shift above must be added to
              band and Fermi energies.

     convergence has been achieved in  62 iterations

     negative rho (up, down):  1.936E-03 0.000E+00

     Forces acting on atoms (cartesian axes, Ry/au):

     atom    1 type  1   force =    -0.00127734   -0.00095824   -0.00008199
     atom    2 type  1   force =     0.00087808    0.00069952   -0.00050777
     atom    3 type  1   force =     0.00025547    0.00053440    0.00169687
     atom    4 type  1   force =    -0.00074714    0.00052516    0.00300550
     atom    5 type  1   force =     0.00053242   -0.00075950    0.00018391
     atom    6 type  1   force =     0.00018345   -0.00061176   -0.00078280
     atom    7 type  1   force =     0.00030993   -0.00118281    0.00267551
     atom    8 type  1   force =    -0.00055717    0.00111884    0.00023109
     atom    9 type  1   force =    -0.00051655    0.00050880   -0.00133686
     atom   10 type  1   force =     0.00014588   -0.00034019    0.00455348
     atom   11 type  1   force =     0.00000836    0.00001873   -0.00006017
     atom   12 type  1   force =    -0.00100507   -0.00046294    0.00006916
     atom   13 type  2   force =     0.00069726    0.00027443   -0.00379260
     atom   14 type  3   force =     0.00109242    0.00063557   -0.00585334

     Total force =     0.007914     Total SCF correction =     0.002415
     SCF correction compared to forces is large: reduce conv_thr to get better values

     Writing all to output data dir ./output/opt.save/ :
     XML data file, charge density, pseudopotentials, collected wavefunctions

     General routines

     Parallel routines

     Environ routines

   This run was terminated on:  16:34:35   9Jun2024

   JOB DONE.