     Program PWSCF v.7.2 starts on  4Jun2024 at 13:27:23

     Reading input from scf.in

     Current dimensions of program PWSCF are:
     Max number of different atomic species (ntypx) = 10
     Max number of k-points (npk) =  40000
     Max angular momentum in pseudopotentials (lmaxx) =  4
     Message from routine setup:
     using ibrav=0 with symmetry is DISCOURAGED, use correct ibrav instead

     K-points division:     npool     =       2
     R & G space division:  proc/nbgrp/npool/nimage =       8
     Subspace diagonalization in iterative solution of the eigenvalue problem:
     a serial algorithm will be used

     Using Slab Decomposition

     bravais-lattice index     =            0
     lattice parameter (alat)  =       4.8698  a.u.
     unit-cell volume          =      81.6608 (a.u.)^3
     number of atoms/cell      =            1
     number of atomic types    =            1
     number of electrons       =        19.00
     number of Kohn-Sham states=           14
     kinetic-energy cutoff     =      40.0000  Ry
     charge density cutoff     =     320.0000  Ry
     scf convergence threshold =      1.0E-08
     mixing beta               =       0.6000
     number of iterations used =            8  plain     mixing
     energy convergence thresh.=      1.0E-04
     force convergence thresh. =      1.0E-03
     press convergence thresh. =      5.0E-01
     Exchange-correlation= SLA  PW   PBE  PBE
                           (   1   4   3   4   0   0   0)
     nstep                     =          200

     celldm(1)=   4.869781  celldm(2)=   0.000000  celldm(3)=   0.000000
     celldm(4)=   0.000000  celldm(5)=   0.000000  celldm(6)=   0.000000

     crystal axes: (cart. coord. in units of alat)
               a(1) = (   0.000000   0.707107   0.707107 )
               a(2) = (   0.707107   0.000000   0.707107 )
               a(3) = (   0.707107   0.707107   0.000000 )

     reciprocal axes: (cart. coord. in units 2 pi/alat)
               b(1) = ( -0.707107  0.707107  0.707107 )
               b(2) = (  0.707107 -0.707107  0.707107 )
               b(3) = (  0.707107  0.707107 -0.707107 )

     PseudoPot. # 1 for Cu read from file:
     ../../pseudo/cu_pbe_v1.2.uspp.F.UPF
     MD5 check sum: 6e991ff952a84172a2a52a1c1e996048
     Pseudo is Ultrasoft + core correction, Zval = 19.0
     Generated by new atomic code, or converted to UPF format
     Using radial grid of  867 points,  6 beta functions with:
                l(1) =   0
                l(2) =   0
                l(3) =   1
                l(4) =   1
                l(5) =   2
                l(6) =   2
     Q(r) pseudized with  8 coefficients,  rinner =    1.150   1.150   1.150
                                                       1.150   1.150

     atomic species   valence    mass     pseudopotential
        Cu            19.00    63.54600     Cu( 1.00)

     Starting magnetic structure
     atomic species   magnetization
        Cu           1.000

     48 Sym. Ops., with inversion, found

   Cartesian axes

     site n.     atom                  positions (alat units)
         1           Cu  tau(   1) = (   0.0000000   0.0000000   0.0000000  )

     number of k points=    10  Methfessel-Paxton smearing, width (Ry)=  0.0100
                       cart. coord. in units 2pi/alat
        k(    1) = (   0.0883883   0.0883883   0.0883883), wk =   0.0312500
        k(    2) = (   0.2651650   0.2651650  -0.0883883), wk =   0.0937500
        k(    3) = (  -0.2651650  -0.2651650   0.4419417), wk =   0.0937500
        k(    4) = (  -0.0883883  -0.0883883   0.2651650), wk =   0.0937500
        k(    5) = (   0.4419417   0.0883883   0.0883883), wk =   0.0937500
        k(    6) = (  -0.0883883  -0.4419417   0.6187184), wk =   0.1875000
        k(    7) = (   0.0883883  -0.2651650   0.4419417), wk =   0.1875000
        k(    8) = (  -0.6187184   0.0883883   0.0883883), wk =   0.0937500
        k(    9) = (   0.2651650   0.2651650   0.2651650), wk =   0.0312500
        k(   10) = (  -0.2651650  -0.2651650   0.7954951), wk =   0.0937500

     Check: negative core charge=   -0.000001
     Generating pointlists ...
     new r_m :   0.4125 (alat units)  2.0088 (a.u.) for type    1

     Initial potential from superposition of free atoms

     starting charge      18.0000, renormalised to      19.0000
     Starting wfcs are   13 randomized atomic wfcs +    1 random wfcs

     Self-consistent Calculation

     iteration #  1     ecut=    40.00 Ry     beta= 0.60
     Davidson diagonalization with overlap
     ethr =  1.00E-02,  avg # of iterations =  5.2

     total energy              =    -394.32749970 Ry
     estimated scf accuracy    <      21.48874309 Ry

     total magnetization       =     6.39 Bohr mag/cell
     absolute magnetization    =     6.39 Bohr mag/cell

     iteration #  2     ecut=    40.00 Ry     beta= 0.60
     Davidson diagonalization with overlap
     ethr =  1.00E-02,  avg # of iterations =  3.1
     Minimization algorithm failed to find Fermi energy: reverting to bisection
     Possible cause: smearing is larger than the electronic band-gap.

[...]

     Magnetic moment per site  (integrated on atomic sphere of radius R)
     atom   1 (R=0.413)  charge= 17.8350  magn=  0.0001

     End of self-consistent calculation

 ------ SPIN UP ------------

          k = 0.0884 0.0884 0.0884 (   335 PWs)   bands (ev):

   -96.8628 -54.2163 -54.2040 -54.2040   6.8941  12.5807  12.7804  12.7804
    13.4613  13.4613  34.1308  38.5229  39.2267  39.2267

[...]

          k =-0.2652-0.2652 0.4419 (   350 PWs)   bands (ev):

[...]

 ------ SPIN DOWN ----------

[...]

     the Fermi energy is    15.5268 ev

!    total energy              =    -403.77790459 Ry
     estimated scf accuracy    <          3.2E-09 Ry
     smearing contrib. (-TS)   =      -0.00014363 Ry
     internal energy E=F+TS    =    -403.77776096 Ry

     The total energy is F=E-TS. E is the sum of the following terms:
     one-electron contribution =    -271.69167790 Ry
     hartree contribution      =     147.05388940 Ry
     xc contribution           =     -38.80940375 Ry
     ewald contribution        =    -240.33056870 Ry

[...]

     convergence has been achieved in  13 iterations

     Forces acting on atoms (cartesian axes, Ry/au):

     atom    1 type  1   force =     0.00000000    0.00000000    0.00000000
     The non-local contrib.  to forces
     atom    1 type  1   force =    -0.00000000    0.00000000    0.00000000
     The ionic contribution  to forces
     atom    1 type  1   force =     0.00000000    0.00000000    0.00000000
     The local contribution  to forces
     atom    1 type  1   force =     0.00000000    0.00000000    0.00000000
     The core correction contribution to forces
     atom    1 type  1   force =     0.00000000    0.00000000    0.00000000
     The Hubbard contrib.    to forces
     atom    1 type  1   force =     0.00000000    0.00000000    0.00000000
     The SCF correction term to forces
     atom    1 type  1   force =    -0.00000000    0.00000000    0.00000000

     Total force =     0.000000     Total SCF correction =     0.000000

     Computing stress (Cartesian axis) and pressure

          total   stress  (Ry/bohr**3)                   (kbar)     P=        7.05
   0.00004795  -0.00000000  -0.00000000            7.05       -0.00       -0.00
  -0.00000000   0.00004795  -0.00000000           -0.00        7.05       -0.00
  -0.00000000  -0.00000000   0.00004795           -0.00       -0.00        7.05

     BFGS Geometry Optimization
     Energy error            =      0.0E+00 Ry
     Gradient error          =      0.0E+00 Ry/Bohr
     Cell gradient error     =      7.1E+00 kbar

     number of scf cycles    =   1
     number of bfgs steps    =   0

     enthalpy           new  =    -403.7779045891 Ry

     new trust radius        =       0.0021666336 bohr
     new conv_thr            =       0.0000000100 Ry

     new unit-cell volume =     81.95479 a.u.^3 (    12.14445 Ang^3 )
     density =      8.68879 g/cm^3

CELL_PARAMETERS (angstrom)
  -0.000000000   1.824382607   1.824382607
   1.824382607  -0.000000000   1.824382607
   1.824382607   1.824382607  -0.000000000

ATOMIC_POSITIONS (angstrom)
Cu            0.0000000000        0.0000000000        0.0000000000

     Writing config-only to output data dir ./output/opt.save/
     NEW-OLD atomic charge density approx. for the potential

     Check: negative core charge=   -0.000001
     extrapolated charge   19.06458, renormalised to   19.00000
     Generating pointlists ...

[...]

     Energy error            =      2.0E-06 Ry
     Gradient error          =      0.0E+00 Ry/Bohr
     Cell gradient error     =      7.4E-01 kbar

[...]

     enthalpy           old  =    -403.7779045891 Ry
     enthalpy           new  =    -403.7779065503 Ry

     CASE: enthalpy          _new < enthalpy          _old

     new trust radius        =       0.0002530584 bohr
     new conv_thr            =            1.0E-10 Ry

[...]

     iteration #  2     ecut=    40.00 Ry     beta= 0.60
     Davidson diagonalization with overlap
     ethr =  2.26E-06,  avg # of iterations =  3.0
     Minimization algorithm failed to find Fermi energy: reverting to bisection
     Possible cause: smearing is larger than the electronic band-gap.

[...]

     CASE: enthalpy          _new > enthalpy          _old

     new trust radius        =       0.0000348634 bohr

     trust_radius < trust_radius_min

     resetting bfgs history

     new conv_thr            =            1.0E-10 Ry

[...]

     Check: negative core charge=   -0.000001
     extrapolated charge   18.99920, renormalised to   19.00000
     Generating pointlists ...

[...]

     Threshold (ethr) on eigenvalues was too large:
     Diagonalizing with lowered threshold

     Davidson diagonalization with overlap
     ethr =  2.49E-08,  avg # of iterations =  1.0

[...]

     Energy error            =      4.0E-07 Ry
     Gradient error          =      0.0E+00 Ry/Bohr
     Cell gradient error     =      1.6E+00 kbar

     number of scf cycles    =   4
     number of bfgs steps    =   2

     enthalpy           old  =    -403.7779065503 Ry
     enthalpy           new  =    -403.7779061530 Ry

     CASE: enthalpy          _new > enthalpy          _old

     new trust radius        =       0.0000315601 bohr

     trust_radius < trust_radius_min

     resetting bfgs history

     Message from routine bfgs:
     history already reset at previous step: stopping
     new conv_thr            =            1.0E-10 Ry

     new unit-cell volume =     81.98553 a.u.^3 (    12.14900 Ang^3 )
     density =      8.68554 g/cm^3

[...]

ATOMIC_POSITIONS (angstrom)
Cu            0.0000000000        0.0000000000        0.0000000000

     Writing config-only to output data dir ./output/opt.save/
     NEW-OLD atomic charge density approx. for the potential

     Check: negative core charge=   -0.000001
     Generating pointlists ...

     Self-consistent Calculation

[...]

     Threshold (ethr) on eigenvalues was too large:
     Diagonalizing with lowered threshold

     Davidson diagonalization with overlap
     ethr =  4.55E-12,  avg # of iterations =  1.0

[...]

     total energy              =    -403.77790615 Ry
     estimated scf accuracy    <          3.4E-09 Ry

[...]

     iteration #  3     ecut=    40.00 Ry     beta= 0.60
     Davidson diagonalization with overlap
     ethr =  4.67E-12,  avg # of iterations =  2.0

     Magnetic moment per site  (integrated on atomic sphere of radius R)
     atom   1 (R=0.413)  charge= 17.8309  magn= -0.0000

     End of self-consistent calculation

 ------ SPIN UP ------------

[...]

 ------ SPIN DOWN ----------

[...]

          k = 0.2648 0.2648 0.2648 (   353 PWs)   bands (ev):

[...]

          k =-0.2648-0.2648 0.7944 (   358 PWs)   bands (ev):

   -96.9210 -54.3518 -54.3227 -54.2954  11.4649  11.9697  12.4653  13.1421
    13.7959  17.5968  20.6324  26.2532  32.8473  35.4160

     the Fermi energy is    15.4447 ev

!    total energy              =    -403.77790615 Ry
     estimated scf accuracy    <          2.1E-12 Ry
     smearing contrib. (-TS)   =      -0.00014759 Ry
     internal energy E=F+TS    =    -403.77775856 Ry

     The total energy is F=E-TS. E is the sum of the following terms:
     one-electron contribution =    -272.22981228 Ry
     hartree contribution      =     147.27238438 Ry
     xc contribution           =     -38.80752626 Ry
     ewald contribution        =    -240.01280440 Ry

     total magnetization       =    -0.00 Bohr mag/cell
     absolute magnetization    =     0.00 Bohr mag/cell

     convergence has been achieved in   3 iterations

     Forces acting on atoms (cartesian axes, Ry/au):

     atom    1 type  1   force =     0.00000000    0.00000000    0.00000000
     The non-local contrib.  to forces
     atom    1 type  1   force =     0.00000000    0.00000000   -0.00000000
     The ionic contribution  to forces
     atom    1 type  1   force =     0.00000000    0.00000000    0.00000000
     The local contribution  to forces
     atom    1 type  1   force =     0.00000000    0.00000000    0.00000000
     The core correction contribution to forces
     atom    1 type  1   force =    -0.00000000    0.00000000   -0.00000000
     The Hubbard contrib.    to forces
     atom    1 type  1   force =     0.00000000    0.00000000    0.00000000
     The SCF correction term to forces
     atom    1 type  1   force =     0.00000000    0.00000000    0.00000000

     Total force =     0.000000     Total SCF correction =     0.000000

     Computing stress (Cartesian axis) and pressure

          total   stress  (Ry/bohr**3)                   (kbar)     P=       -2.06
  -0.00001400  -0.00000000   0.00000000           -2.06       -0.00        0.00
  -0.00000000  -0.00001400  -0.00000000           -0.00       -2.06       -0.00
   0.00000000   0.00000000  -0.00001400            0.00        0.00       -2.06

     Message from routine bfgs:
     history already reset at previous step: exiting
     Energy error            =      4.0E-07 Ry
     Gradient error          =      0.0E+00 Ry/Bohr
     Cell gradient error     =      2.1E+00 kbar
Begin final coordinates
     new unit-cell volume =     81.98553 a.u.^3 (    12.14900 Ang^3 )
     density =      8.68554 g/cm^3

CELL_PARAMETERS (angstrom)
  -0.000000000   1.824610640   1.824610640
   1.824610640  -0.000000000   1.824610640
   1.824610640   1.824610640  -0.000000000

ATOMIC_POSITIONS (angstrom)
Cu            0.0000000000        0.0000000000        0.0000000000
End final coordinates

     Writing config-only to output data dir ./output/opt.save/

     Writing all to output data dir ./output/opt.save/

     General routines

     Parallel routines

   This run was terminated on:  13:27:26   4Jun2024

   JOB DONE.