     Program PWSCF v.7.2 starts on  4Jun2024 at 23:25:56

     Reading input from scf_efield_n.in
Warning: card &CELL ignored
Warning: card / ignored

     Current dimensions of program PWSCF are:
     Max number of different atomic species (ntypx) = 10
     Max number of k-points (npk) =  40000
     Max angular momentum in pseudopotentials (lmaxx) =  4

     R & G space division:  proc/nbgrp/npool/nimage =      32
     Subspace diagonalization in iterative solution of the eigenvalue problem:
     a serial algorithm will be used

     Using Slab Decomposition

     bravais-lattice index     =            0
     lattice parameter (alat)  =       9.6476  a.u.
     unit-cell volume          =    4569.7547 (a.u.)^3
     number of atoms/cell      =           14
     number of atomic types    =            3
     number of electrons       =       238.00
     number of Kohn-Sham states=          143
     kinetic-energy cutoff     =      40.0000  Ry
     charge density cutoff     =     320.0000  Ry
     scf convergence threshold =      1.0E-06
     mixing beta               =       0.1000
     number of iterations used =            8  plain     mixing
     Exchange-correlation= SLA  PW   PBE  PBE
                           (   1   4   3   4   0   0   0)

     celldm(1)=   9.647639  celldm(2)=   0.000000  celldm(3)=   0.000000
     celldm(4)=   0.000000  celldm(5)=   0.000000  celldm(6)=   0.000000

     crystal axes: (cart. coord. in units of alat)
               a(1) = (   1.000000   0.000000   0.000000 )
               a(2) = (   0.500000   0.866025   0.000000 )
               a(3) = (   0.000000   0.000000   5.876234 )

     reciprocal axes: (cart. coord. in units 2 pi/alat)
               b(1) = (  1.000000 -0.577350  0.000000 )
               b(2) = (  0.000000  1.154701  0.000000 )
               b(3) = (  0.000000  0.000000  0.170177 )

     PseudoPot. # 1 for Cu read from file:
     ../../pseudo/cu_pbe_v1.2.uspp.F.UPF
     MD5 check sum: 6e991ff952a84172a2a52a1c1e996048
     Pseudo is Ultrasoft + core correction, Zval = 19.0
     Generated by new atomic code, or converted to UPF format
     Using radial grid of  867 points,  6 beta functions with:
                l(1) =   0
                l(2) =   0
                l(3) =   1
                l(4) =   1
                l(5) =   2
                l(6) =   2
     Q(r) pseudized with  8 coefficients,  rinner =    1.150   1.150   1.150
                                                       1.150   1.150

     PseudoPot. # 2 for O  read from file:
     ../../pseudo/o_pbe_v1.2.uspp.F.UPF
     MD5 check sum: 734c27235a0248c51dbae37a1fbe46ec
     Pseudo is Ultrasoft + core correction, Zval =  6.0
     Generated by new atomic code, or converted to UPF format
     Using radial grid of  737 points,  5 beta functions with:
                l(1) =   0
                l(2) =   0
                l(3) =   1
                l(4) =   1
                l(5) =   2
     Q(r) pseudized with  8 coefficients,  rinner =    0.900   0.900   0.900
                                                       0.900   0.900

     PseudoPot. # 3 for C  read from file:
     ../../pseudo/c_pbe_v1.2.uspp.F.UPF
     MD5 check sum: d1aef80898a10debaa0f26306b886e00
     Pseudo is Ultrasoft + core correction, Zval =  4.0
     Generated by new atomic code, or converted to UPF format
     Using radial grid of  721 points,  4 beta functions with:
                l(1) =   0
                l(2) =   0
                l(3) =   1
                l(4) =   1
     Q(r) pseudized with  8 coefficients,  rinner =    1.100   1.100   1.100

     atomic species   valence    mass     pseudopotential
        Cu            19.00    63.54600     Cu( 1.00)
        O              6.00    15.99900     O ( 1.00)
        C              4.00    12.01100     C ( 1.00)

     No symmetry found

   Cartesian axes

     site n.     atom                  positions (alat units)
         1           Cu  tau(   1) = (   0.1250000   0.0721688  -0.3917489  )
         2           Cu  tau(   2) = (   0.6303651   0.3620439   0.0093767  )
         3           Cu  tau(   3) = (   0.3908697   0.2225165   0.4072039  )
         4           Cu  tau(   4) = (   0.3750000   0.5051815  -0.3917489  )
         5           Cu  tau(   5) = (   0.8810586   0.7929929   0.0121369  )
         6           Cu  tau(   6) = (   0.6406493   0.6600251   0.4293002  )
         7           Cu  tau(   7) = (   0.6250000   0.0721688  -0.3917489  )
         8           Cu  tau(   8) = (   1.1289367   0.3637558   0.0124115  )
         9           Cu  tau(   9) = (   0.8944855   0.2208325   0.4305396  )
        10           Cu  tau(  10) = (   0.8750000   0.5051815  -0.3917489  )
        11           Cu  tau(  11) = (   1.3806944   0.7954917   0.0246836  )
        12           Cu  tau(  12) = (   1.1455917   0.6584810   0.4319321  )
        13           O   tau(  13) = (   0.8819856   0.5082280   0.9272744  )
        14           C   tau(  14) = (   0.8813532   0.5068991   0.6960150  )

     number of k points=     2  Methfessel-Paxton smearing, width (Ry)=  0.0100
                       cart. coord. in units 2pi/alat
        k(    1) = (   0.2500000   0.1443376   0.0000000), wk =   1.0000000
        k(    2) = (   0.2500000  -0.4330127   0.0000000), wk =   1.0000000

     Initial potential from superposition of free atoms

     starting charge     225.9999, renormalised to     238.0000

     negative rho (up, down):  4.013E-03 0.000E+00

     Adding external electric field

     Computed dipole along edir(3) :
        Dipole               -4.1946 Ry au,        -10.6616 Debye
        Dipole field         -0.0115 Ry au,

        E field amplitude [Ha a.u.]: -1.0000E-02
        Potential amp.        0.1723 Ry
        Total length         56.1249 bohr

     Starting wfcs are  164 randomized atomic wfcs

     Self-consistent Calculation

     iteration #  1     ecut=    40.00 Ry     beta= 0.10
     Davidson diagonalization with overlap
     ethr =  1.00E-02,  avg # of iterations =  9.5

[...]

     total energy              =   -4774.46103119 Ry
     estimated scf accuracy    <     704.58781781 Ry

[...]

     total energy              =   -4888.90675381 Ry
     estimated scf accuracy    <       0.00000228 Ry

     iteration # 23     ecut=    40.00 Ry     beta= 0.10
     Davidson diagonalization with overlap
     ethr =  9.58E-10,  avg # of iterations =  1.0

[...]

     Adding external electric field

     Computed dipole along edir(3) :
        Dipole               -1.1702 Ry au,         -2.9743 Debye
        Dipole field         -0.0032 Ry au,

        E field amplitude [Ha a.u.]: -1.0000E-02
        Potential amp.       -0.7613 Ry
        Total length         56.1249 bohr

     End of self-consistent calculation

          k = 0.2500 0.1443 0.0000 ( 19495 PWs)   bands (ev):

  -113.1860-113.1799-113.1393-113.0158-112.9308-112.7881-112.7830-112.7536
  -112.7023-112.6485-112.6437-112.5536 -70.7337 -70.7054 -70.6563 -70.5405
   -70.5330 -70.4807 -70.4658 -70.4590 -70.4501 -70.4396 -70.4179 -70.3611
   -70.3414 -70.3220 -70.3034 -70.2187 -70.2115 -70.2027 -70.1907 -70.1682
   -70.1640 -70.1527 -70.1522 -70.1378 -70.1139 -70.1133 -70.0960 -70.0682
   -70.0381 -70.0301 -70.0285 -69.9971 -69.9927 -69.9859 -69.9316 -69.9284
   -23.7942 -10.9282  -8.6054  -7.8171  -7.3254  -7.2617  -6.2201  -5.6471
    -5.1662  -5.0492  -5.0434  -4.9353  -4.8277  -4.7849  -4.5441  -4.4757
    -4.4581  -4.3534  -4.3449  -4.2886  -3.9363  -3.9175  -3.8397  -3.7464
    -3.6291  -3.5401  -3.5135  -3.4712  -3.4683  -3.4424  -3.3930  -3.2958
    -3.2727  -3.2183  -3.1726  -3.1633  -3.1281  -3.1008  -3.0798  -2.9616
    -2.9026  -2.8778  -2.8084  -2.7713  -2.7127  -2.6649  -2.6127  -2.5639
    -2.5574  -2.5432  -2.4307  -2.3903  -2.3803  -2.2945  -2.2222  -2.1928
    -2.1811  -2.1621  -2.1131  -2.0761  -2.0633  -2.0276  -1.9917  -1.9661
    -1.9492  -1.8986  -1.8602  -1.8464  -1.3650  -0.7206  -0.5572  -0.1687
     0.1887   0.4099   0.8687   1.5581   1.6644   2.0577   2.4037   3.0329
     3.2966   3.6884   4.3040   4.6587   4.7885   5.1421   5.4604   5.5116
     5.8805   5.9585   6.0482   6.5984   6.9799   7.1028   7.4356

          k = 0.2500-0.4330 0.0000 ( 19534 PWs)   bands (ev):

  -113.1848-113.1811-113.1393-113.0158-112.9308-112.7864-112.7847-112.7535
  -112.7024-112.6469-112.6454-112.5536 -70.7219 -70.7163 -70.6558 -70.5382
   -70.5348 -70.4704 -70.4665 -70.4568 -70.4532 -70.4484 -70.4091 -70.3606
   -70.3415 -70.3318 -70.3031 -70.2091 -70.2058 -70.1884 -70.1805 -70.1771
   -70.1688 -70.1647 -70.1535 -70.1496 -70.1133 -70.1052 -70.0884 -70.0816
   -70.0389 -70.0345 -70.0278 -69.9955 -69.9943 -69.9859 -69.9331 -69.9284
   -23.7935 -10.8344  -8.0279  -7.5664  -7.3066  -7.2532  -6.0833  -6.0523
    -5.6216  -4.9659  -4.8854  -4.6531  -4.5418  -4.4473  -4.3552  -4.3378
    -4.2543  -4.1603  -4.0903  -4.0608  -3.9521  -3.9100  -3.8905  -3.8087
    -3.7975  -3.7568  -3.6750  -3.6181  -3.5804  -3.5457  -3.4266  -3.4048
    -3.3817  -3.3364  -3.3271  -3.2719  -3.2345  -3.1976  -3.1584  -3.1170
    -3.0501  -2.9936  -2.9847  -2.9682  -2.8562  -2.8213  -2.7756  -2.7423
    -2.7133  -2.6380  -2.6231  -2.5577  -2.5088  -2.4242  -2.4192  -2.3587
    -2.3109  -2.2933  -2.2371  -2.1721  -2.1023  -2.0687  -2.0582  -2.0320
    -2.0112  -1.9758  -1.8867  -1.8237  -1.6808  -1.4490  -0.9842  -0.0137
     0.4209   1.0545   1.8666   2.0327   2.5275   2.6268   2.6756   3.1337
     3.8032   4.2523   4.5489   4.5501   4.7357   5.0734   5.2375   5.8023
     6.0963   6.1224   6.1637   6.1975   6.8415   6.8643   7.0361

     the Fermi energy is    -0.3633 ev

!    total energy              =   -4888.90677041 Ry
     estimated scf accuracy    <       0.00000097 Ry
     smearing contrib. (-TS)   =       0.00117206 Ry
     internal energy E=F+TS    =   -4888.90794248 Ry

     The total energy is F=E-TS. E is the sum of the following terms:
     one-electron contribution =  -54525.26064268 Ry
     hartree contribution      =   27266.02682927 Ry
     xc contribution           =    -476.17340774 Ry
     ewald contribution        =   22846.51891662 Ry
     electric field correction =      -0.01963795 Ry

     convergence has been achieved in  23 iterations

     negative rho (up, down):  1.957E-03 0.000E+00

     Forces acting on atoms (cartesian axes, Ry/au):

     atom    1 type  1   force =    -0.00137145   -0.00103037   -0.00089496
     atom    2 type  1   force =     0.00063053    0.00054783   -0.00105165
     atom    3 type  1   force =     0.00024156    0.00051700    0.00029158
     atom    4 type  1   force =    -0.00080213    0.00046004    0.00111794
     atom    5 type  1   force =     0.00058357   -0.00076114   -0.00078027
     atom    6 type  1   force =     0.00107267   -0.00023804    0.00014686
     atom    7 type  1   force =     0.00020286   -0.00116433    0.00083064
     atom    8 type  1   force =    -0.00054338    0.00121942   -0.00070868
     atom    9 type  1   force =     0.00024109    0.00110084   -0.00036131
     atom   10 type  1   force =     0.00003191   -0.00044425    0.00286462
     atom   11 type  1   force =    -0.00037783   -0.00025051   -0.00094422
     atom   12 type  1   force =    -0.00178820   -0.00088864    0.00012316
     atom   13 type  2   force =     0.00057333    0.00024724    0.01611437
     atom   14 type  3   force =     0.00130547    0.00068492   -0.01674806
     The non-local contrib.  to forces
     atom    1 type  1   force =    -0.01748433   -0.01101818   -0.25690948
     atom    2 type  1   force =    -0.02299242   -0.01354386    0.00283228
     atom    3 type  1   force =     0.09060514    0.05196057    0.29197869
     atom    4 type  1   force =    -0.00839989    0.02704144   -0.28683371
     atom    5 type  1   force =    -0.05544711    0.05789146   -0.03834679
     atom    6 type  1   force =     0.13993653   -0.17297673    0.20757879
     atom    7 type  1   force =     0.01783265   -0.02070161   -0.28704171
     atom    8 type  1   force =     0.02184942   -0.07633934   -0.03712034
     atom    9 type  1   force =    -0.07977858    0.20660415    0.20796504
     atom   10 type  1   force =    -0.00929363   -0.00478606   -0.31918423
     atom   11 type  1   force =     0.03415831    0.01950566   -0.08148925
     atom   12 type  1   force =    -0.18068574   -0.10465148    0.21611544
     atom   13 type  2   force =    -0.00538050   -0.01282475   -2.23079117
     atom   14 type  3   force =     0.02140957    0.01511995    0.49132429
     The ionic contribution  to forces
     atom    1 type  1   force =    -0.64323978   -0.38395821 -371.49090868
     atom    2 type  1   force =     0.71663353    0.41853411  -24.44118466
     atom    3 type  1   force =     1.03071496    0.66023688  322.13901659
     atom    4 type  1   force =    -0.07104273    0.95118992 -371.80001731
     atom    5 type  1   force =    -0.06844534   -0.37995306  -22.99674277
     atom    6 type  1   force =    -4.06914940    1.03349791  330.99129080
     atom    7 type  1   force =     0.80686406   -0.56524434 -371.85339638
     atom    8 type  1   force =    -0.39310111    0.13456917  -22.72781986
     atom    9 type  1   force =    -1.11269641   -4.08249739  331.83110135
     atom   10 type  1   force =     0.18511374    0.06941140 -372.73217601
     atom   11 type  1   force =     0.09091135    0.08219159  -14.39620654
     atom   12 type  1   force =     3.53771597    2.01821860  333.84649315
     atom   13 type  2   force =    -0.01703660    0.04167376  157.62131553
     atom   14 type  3   force =     0.00675776    0.00212965   96.00923477
     The local contribution  to forces
     atom    1 type  1   force =     0.65935411    0.39393037  372.00432380
     atom    2 type  1   force =    -0.69333293   -0.40464286   24.69670972
     atom    3 type  1   force =    -1.12113264   -0.71169811 -322.17236836
     atom    4 type  1   force =     0.07863564   -0.97772909  372.34500531
     atom    5 type  1   force =     0.12414680    0.32198253   23.29357878
     atom    6 type  1   force =     3.92968415   -0.86066842 -330.93961136
     atom    7 type  1   force =    -0.82447524    0.58475083  372.39828490
     atom    8 type  1   force =     0.37112680   -0.05764303   23.02347829
     atom    9 type  1   force =     1.19249326    3.87642205 -331.78030254
     atom   10 type  1   force =    -0.17574403   -0.06502712  373.31103224
     atom   11 type  1   force =    -0.12503052   -0.10169970   14.73586806
     atom   12 type  1   force =    -3.35824691   -1.91413373 -333.80352541
     atom   13 type  2   force =     0.02295623   -0.02865009 -155.29986279
     atom   14 type  3   force =    -0.02664108   -0.01644308  -96.46672024
     The core correction contribution to forces
     atom    1 type  1   force =     0.00000665    0.00000315    0.00022201
     atom    2 type  1   force =    -0.00002781   -0.00001742   -0.00005092
     atom    3 type  1   force =    -0.00005176   -0.00002897   -0.00029124
     atom    4 type  1   force =    -0.00001425   -0.00003345    0.00032531
     atom    5 type  1   force =     0.00004944   -0.00005356    0.00002528
     atom    6 type  1   force =     0.00009033    0.00008293   -0.00037406
     atom    7 type  1   force =    -0.00003480    0.00000684    0.00032433
     atom    8 type  1   force =    -0.00002277    0.00007142    0.00002380
     atom    9 type  1   force =     0.00011611    0.00003821   -0.00037638
     atom   10 type  1   force =    -0.00002160   -0.00001654    0.00044531
     atom   11 type  1   force =    -0.00004936   -0.00003009    0.00008431
     atom   12 type  1   force =     0.00003161    0.00001877   -0.00039899
     atom   13 type  2   force =     0.00001478    0.00003747    0.00608158
     atom   14 type  3   force =    -0.00024183   -0.00013120    0.00363336
     The Hubbard contrib.    to forces
     atom    1 type  1   force =     0.00000000    0.00000000    0.00000000
     atom    2 type  1   force =     0.00000000    0.00000000    0.00000000
     atom    3 type  1   force =     0.00000000    0.00000000    0.00000000
     atom    4 type  1   force =     0.00000000    0.00000000    0.00000000
     atom    5 type  1   force =     0.00000000    0.00000000    0.00000000
     atom    6 type  1   force =     0.00000000    0.00000000    0.00000000
     atom    7 type  1   force =     0.00000000    0.00000000    0.00000000
     atom    8 type  1   force =     0.00000000    0.00000000    0.00000000
     atom    9 type  1   force =     0.00000000    0.00000000    0.00000000
     atom   10 type  1   force =     0.00000000    0.00000000    0.00000000
     atom   11 type  1   force =     0.00000000    0.00000000    0.00000000
     atom   12 type  1   force =     0.00000000    0.00000000    0.00000000
     atom   13 type  2   force =     0.00000000    0.00000000    0.00000000
     atom   14 type  3   force =     0.00000000    0.00000000    0.00000000
     The SCF correction term to forces
     atom    1 type  1   force =     0.00000000    0.00000000    0.00000000
     atom    2 type  1   force =     0.00035484    0.00022149   -0.00209324
     atom    3 type  1   force =     0.00011054    0.00005026   -0.00077927
     atom    4 type  1   force =     0.00000000    0.00000000    0.00000000
     atom    5 type  1   force =     0.00028446   -0.00062488   -0.00202993
     atom    6 type  1   force =     0.00051572   -0.00017010   -0.00147248
     atom    7 type  1   force =     0.00000000    0.00000000    0.00000000
     atom    8 type  1   force =    -0.00039104    0.00056482   -0.00200574
     atom    9 type  1   force =     0.00011139    0.00053745   -0.00148395
     atom   10 type  1   force =     0.00000000    0.00000000    0.00000000
     atom   11 type  1   force =    -0.00036293   -0.00021434   -0.00193597
     atom   12 type  1   force =    -0.00059845   -0.00033717   -0.00129620
     atom   13 type  2   force =     0.00002411    0.00001448    0.00030007
     atom   14 type  3   force =     0.00002574    0.00001324   -0.00042002

     Total force =     0.023590     Total SCF correction =     0.005057
     SCF correction compared to forces is large: reduce conv_thr to get better values

     Writing all to output data dir ./output/opt.save/

     General routines

     Parallel routines

   This run was terminated on:  23:26:21   4Jun2024

   JOB DONE.